c independent all-candidate local-resilience encoding
c record_sha256=ffe9583db47dbcc7e29e12a7d148fb1388827ac9917d1aefa7eb5fee89b4e7d6
c radius=6 target=5
c removed_vars=1..164
c unlocked_vars=165..901
p cnf 5703 24775
-165 11 116 0
-165 16 156 0
-165 22 156 0
-165 23 154 0
-165 54 154 0
-165 62 154 0
-165 78 154 0
-165 92 144 0
-165 113 138 0
-165 113 146 0
-165 133 154 0
-165 136 154 0
-166 39 132 0
-166 39 137 0
-166 47 156 0
-166 96 157 0
-166 121 151 0
-167 44 133 0
-167 44 160 0
-167 62 84 0
-167 72 75 0
-167 84 135 0
-167 108 162 0
-168 23 24 0
-168 24 42 0
-168 24 54 0
-168 24 62 0
-168 24 78 0
-168 24 133 0
-168 24 136 0
-168 26 100 0
-168 100 131 0
-169 9 162 0
-169 29 69 0
-169 42 127 0
-169 44 55 0
-169 45 56 0
-169 73 77 0
-170 28 42 0
-170 31 43 0
-170 37 114 0
-170 44 164 0
-170 65 72 0
-170 145 158 0
-171 23 59 0
-171 26 128 0
-171 44 59 0
-171 54 59 0
-171 59 62 0
-171 59 78 0
-171 59 133 0
-171 59 136 0
-171 128 131 0
-172 4 158 0
-172 13 112 0
-172 42 85 0
-172 42 136 0
-172 54 112 0
-172 68 73 0
-173 12 125 0
-173 21 126 0
-173 74 146 0
-173 92 102 0
-173 126 161 0
-174 8 156 0
-174 16 92 0
-174 22 92 0
-174 23 91 0
-174 54 91 0
-174 62 91 0
-174 78 91 0
-174 81 152 0
-174 89 150 0
-174 91 133 0
-174 91 136 0
-174 121 152 0
-175 24 39 0
-175 28 39 0
-175 36 150 0
-175 39 42 0
-175 39 44 0
-175 39 55 0
-175 39 59 0
-175 39 85 0
-175 39 91 0
-175 39 154 0
-175 39 160 0
-175 49 107 0
-175 78 154 0
-175 88 143 0
-175 106 154 0
-175 152 154 0
-176 19 44 0
-176 19 49 0
-176 72 94 0
-176 82 106 0
-176 124 160 0
-176 147 152 0
-176 147 153 0
-176 151 160 0
-177 9 62 0
-177 17 112 0
-177 55 62 0
-177 62 146 0
-177 62 161 0
-177 82 150 0
-177 112 119 0
-178 1 118 0
-178 17 160 0
-178 35 72 0
-178 94 112 0
-179 13 62 0
-179 16 81 0
-179 24 94 0
-179 28 94 0
-179 36 129 0
-179 42 94 0
-179 44 94 0
-179 54 62 0
-179 55 94 0
-179 59 94 0
-179 73 144 0
-179 85 94 0
-179 91 94 0
-179 94 154 0
-179 94 160 0
-179 119 147 0
-180 1 66 0
-180 18 81 0
-180 40 72 0
-180 63 118 0
-181 50 122 0
-181 73 120 0
-181 110 147 0
-181 119 138 0
-182 8 72 0
-182 18 118 0
-182 22 138 0
-182 24 27 0
-182 27 28 0
-182 27 42 0
-182 27 44 0
-182 27 55 0
-182 27 59 0
-182 27 85 0
-182 27 91 0
-182 27 154 0
-182 27 160 0
-182 54 62 0
-182 54 135 0
-182 101 153 0
-183 25 73 0
-183 27 84 0
-183 50 147 0
-183 85 143 0
-184 18 84 0
-184 28 54 0
-184 54 121 0
-184 54 132 0
-184 54 145 0
-184 84 143 0
-184 116 134 0
-185 2 106 0
-185 19 134 0
-185 27 73 0
-185 36 118 0
-185 42 106 0
-185 74 85 0
-185 85 115 0
-185 113 118 0
-186 2 159 0
-186 17 140 0
-186 19 91 0
-186 23 91 0
-186 24 126 0
-186 28 126 0
-186 42 126 0
-186 44 126 0
-186 55 126 0
-186 59 126 0
-186 85 126 0
-186 91 113 0
-186 91 126 0
-186 116 153 0
-186 126 154 0
-186 126 160 0
-187 11 116 0
-187 19 46 0
-187 23 157 0
-187 26 35 0
-187 39 106 0
-187 39 154 0
-187 78 106 0
-187 78 154 0
-188 35 77 0
-188 35 78 0
-188 38 73 0
-188 43 67 0
-188 43 92 0
-188 72 94 0
-188 73 129 0
-188 112 145 0
-189 5 154 0
-189 17 110 0
-189 17 119 0
-189 17 160 0
-189 20 153 0
-189 46 146 0
-189 54 110 0
-189 99 160 0
-189 152 154 0
-190 9 41 0
-190 17 23 0
-190 17 54 0
-190 17 62 0
-190 17 78 0
-190 17 133 0
-190 17 136 0
-190 17 160 0
-190 23 81 0
-190 94 112 0
-190 119 145 0
-191 6 85 0
-191 11 85 0
-191 33 85 0
-191 35 130 0
-191 37 144 0
-191 39 130 0
-191 40 85 0
-191 62 91 0
-191 77 130 0
-191 91 135 0
-191 130 154 0
-192 1 79 0
-192 6 133 0
-192 6 145 0
-192 36 162 0
-192 40 118 0
-192 54 55 0
-192 55 161 0
-192 62 85 0
-192 62 94 0
-192 85 135 0
-193 13 70 0
-193 13 93 0
-193 24 127 0
-193 29 101 0
-193 41 44 0
-193 41 133 0
-193 44 71 0
-193 44 89 0
-193 44 120 0
-193 54 133 0
-193 55 110 0
-193 55 138 0
-194 6 44 0
-194 11 44 0
-194 20 108 0
-194 23 41 0
-194 24 55 0
-194 24 71 0
-194 33 44 0
-194 40 44 0
-194 41 54 0
-194 41 62 0
-194 41 78 0
-194 41 133 0
-194 41 136 0
-194 55 100 0
-194 55 101 0
-194 55 116 0
-194 55 127 0
-194 55 142 0
-194 84 119 0
-195 4 80 0
-195 6 23 0
-195 6 54 0
-195 6 62 0
-195 6 78 0
-195 6 133 0
-195 6 136 0
-195 10 28 0
-195 18 112 0
-195 28 59 0
-195 28 128 0
-195 28 129 0
-195 28 150 0
-195 28 164 0
-195 33 59 0
-195 41 42 0
-195 42 71 0
-195 42 89 0
-195 42 120 0
-196 6 42 0
-196 6 136 0
-196 11 42 0
-196 28 63 0
-196 28 81 0
-196 33 42 0
-196 37 129 0
-196 40 42 0
-196 59 164 0
-196 62 136 0
-196 95 135 0
-196 130 135 0
-197 8 29 0
-197 13 154 0
-197 25 70 0
-197 41 160 0
-197 54 154 0
-197 65 70 0
-197 70 91 0
-197 70 126 0
-197 71 160 0
-197 89 160 0
-197 120 160 0
-198 6 145 0
-198 9 18 0
-198 23 143 0
-198 27 84 0
-198 54 143 0
-198 62 143 0
-198 78 138 0
-198 78 143 0
-198 85 143 0
-198 133 143 0
-198 136 143 0
-199 18 143 0
-199 36 80 0
-199 62 63 0
-199 63 143 0
-199 64 85 0
-199 85 143 0
-199 91 113 0
-199 91 123 0
-199 121 149 0
-200 9 84 0
-200 23 25 0
-200 25 65 0
-200 27 73 0
-200 30 72 0
-200 45 155 0
-200 45 156 0
-200 72 101 0
-201 19 23 0
-201 19 126 0
-201 23 91 0
-201 25 131 0
-201 78 125 0
-201 89 150 0
-201 91 126 0
-201 106 149 0
-202 1 15 0
-202 9 15 0
-202 18 45 0
-202 24 78 0
-202 25 26 0
-202 26 33 0
-202 26 35 0
-202 26 71 0
-202 26 82 0
-202 26 118 0
-202 26 134 0
-202 26 147 0
-202 28 78 0
-202 39 106 0
-202 39 154 0
-202 42 78 0
-202 44 78 0
-202 52 106 0
-202 55 78 0
-202 59 78 0
-202 61 106 0
-202 78 85 0
-202 78 91 0
-202 78 106 0
-202 78 154 0
-202 78 160 0
-202 83 106 0
-202 106 109 0
-202 106 151 0
-203 6 126 0
-203 11 126 0
-203 12 19 0
-203 12 23 0
-203 12 113 0
-203 26 110 0
-203 33 126 0
-203 35 154 0
-203 40 126 0
-203 92 144 0
-203 134 149 0
-204 1 106 0
-204 2 106 0
-204 5 159 0
-204 26 78 0
-204 39 77 0
-204 39 82 0
-204 46 159 0
-204 60 106 0
-204 69 106 0
-204 82 106 0
-204 88 106 0
-204 90 106 0
-204 94 104 0
-204 94 119 0
-204 96 159 0
-204 106 107 0
-204 106 137 0
-204 106 153 0
-204 119 154 0
-205 5 106 0
-205 7 94 0
-205 17 147 0
-205 35 72 0
-205 52 69 0
-205 82 162 0
-205 94 112 0
-205 94 147 0
-205 94 157 0
-205 106 152 0
-206 15 120 0
-206 16 67 0
-206 26 101 0
-206 55 62 0
-206 71 102 0
-206 72 119 0
-206 119 147 0
-207 13 132 0
-207 54 132 0
-207 94 160 0
-207 112 160 0
-208 5 141 0
-208 6 27 0
-208 11 27 0
-208 19 63 0
-208 19 81 0
-208 27 33 0
-208 27 40 0
-208 46 141 0
-208 52 141 0
-208 96 141 0
-208 100 155 0
-208 102 164 0
-209 8 14 0
-209 9 26 0
-209 13 161 0
-209 41 164 0
-209 54 55 0
-209 54 161 0
-209 71 164 0
-209 89 164 0
-209 120 164 0
-210 4 75 0
-210 14 33 0
-210 19 32 0
-210 24 133 0
-210 28 133 0
-210 42 133 0
-210 44 133 0
-210 55 133 0
-210 59 133 0
-210 85 133 0
-210 91 133 0
-210 102 126 0
-210 111 135 0
-210 127 133 0
-210 133 154 0
-210 133 160 0
-211 13 53 0
-211 24 136 0
-211 28 136 0
-211 39 47 0
-211 42 136 0
-211 44 136 0
-211 55 136 0
-211 57 106 0
-211 59 136 0
-211 68 108 0
-211 71 86 0
-211 85 136 0
-211 91 136 0
-211 136 154 0
-211 136 160 0
-211 136 164 0
-212 6 127 0
-212 11 127 0
-212 28 62 0
-212 33 127 0
-212 40 127 0
-212 62 132 0
-212 86 144 0
-212 131 145 0
-212 132 135 0
-213 12 90 0
-213 41 94 0
-213 47 127 0
-213 67 128 0
-213 71 94 0
-213 89 94 0
-213 90 123 0
-213 90 139 0
-213 90 149 0
-213 94 120 0
-213 106 110 0
-213 106 138 0
-214 27 85 0
-214 62 161 0
-214 84 85 0
-214 135 161 0
-215 18 73 0
-215 18 118 0
-215 22 155 0
-215 28 54 0
-215 33 47 0
-215 40 83 0
-215 129 131 0
-216 19 113 0
-216 19 123 0
-216 25 73 0
-216 27 84 0
-216 27 97 0
-216 27 118 0
-216 27 125 0
-216 114 139 0
-216 118 143 0
-216 134 158 0
-217 12 107 0
-217 18 27 0
-217 18 91 0
-217 19 21 0
-217 19 36 0
-217 19 49 0
-217 19 50 0
-217 19 105 0
-217 19 114 0
-217 19 134 0
-217 19 140 0
-217 19 141 0
-217 19 159 0
-217 23 131 0
-217 27 117 0
-217 65 126 0
-217 107 123 0
-217 107 149 0
-217 126 134 0
-218 8 156 0
-218 25 91 0
-218 39 41 0
-218 39 71 0
-218 39 89 0
-218 39 120 0
-218 46 82 0
-218 63 131 0
-218 78 96 0
-218 96 106 0
-218 96 152 0
-219 15 19 0
-219 19 23 0
-219 19 34 0
-219 19 74 0
-219 19 126 0
-219 19 139 0
-219 19 148 0
-219 23 24 0
-219 23 28 0
-219 23 42 0
-219 23 44 0
-219 23 55 0
-219 23 59 0
-219 23 85 0
-219 23 91 0
-219 23 154 0
-219 23 160 0
-219 25 131 0
-219 33 131 0
-219 35 131 0
-219 43 119 0
-219 50 83 0
-219 71 131 0
-219 82 131 0
-219 83 145 0
-219 91 126 0
-219 118 131 0
-219 131 134 0
-219 131 147 0
-220 35 106 0
-220 36 71 0
-220 39 106 0
-220 77 106 0
-220 106 154 0
-221 53 126 0
-221 75 106 0
-221 91 164 0
-222 38 122 0
-222 54 88 0
-222 94 110 0
-222 112 119 0
-222 128 139 0
-223 7 119 0
-223 19 160 0
-223 27 160 0
-223 39 160 0
-223 41 101 0
-223 47 138 0
-223 53 147 0
-223 94 160 0
-223 106 160 0
-223 112 119 0
-223 119 147 0
-223 119 157 0
-223 126 160 0
-223 127 160 0
-223 132 160 0
-223 160 161 0
-223 160 164 0
-224 25 163 0
-224 55 120 0
-224 65 163 0
-224 71 82 0
-224 82 83 0
-224 89 107 0
-224 91 163 0
-224 110 154 0
-224 126 163 0
-224 147 153 0
-225 5 142 0
-225 8 97 0
-225 10 121 0
-225 54 127 0
-225 54 161 0
-225 90 97 0
-226 24 41 0
-226 25 57 0
-226 28 41 0
-226 33 71 0
-226 33 133 0
-226 33 136 0
-226 41 42 0
-226 41 44 0
-226 41 55 0
-226 41 59 0
-226 41 85 0
-226 41 91 0
-226 41 154 0
-226 41 160 0
-226 44 64 0
-226 55 127 0
-226 72 143 0
-227 6 24 0
-227 6 28 0
-227 6 42 0
-227 6 44 0
-227 6 55 0
-227 6 59 0
-227 6 85 0
-227 6 91 0
-227 6 154 0
-227 6 160 0
-227 17 73 0
-227 28 164 0
-227 32 35 0
-227 33 71 0
-227 42 99 0
-227 71 133 0
-227 71 136 0
-228 7 141 0
-228 7 144 0
-228 10 123 0
-228 62 132 0
-228 62 164 0
-228 142 146 0
-229 11 159 0
-229 15 134 0
-229 28 40 0
-229 33 134 0
-229 35 76 0
-229 36 118 0
-229 39 76 0
-229 63 91 0
-229 76 77 0
-229 76 154 0
-230 6 129 0
-230 18 84 0
-230 18 97 0
-230 18 118 0
-230 18 125 0
-230 19 85 0
-230 27 85 0
-230 39 85 0
-230 81 102 0
-230 85 94 0
-230 85 106 0
-230 85 126 0
-230 85 127 0
-230 85 132 0
-230 85 161 0
-230 85 164 0
-230 111 118 0
-231 18 84 0
-231 27 63 0
-231 30 66 0
-231 52 100 0
-231 62 140 0
-232 19 68 0
-232 39 111 0
-232 127 154 0
-233 4 48 0
-233 6 119 0
-233 11 119 0
-233 19 25 0
-233 19 113 0
-233 25 65 0
-233 33 119 0
-233 40 119 0
-233 63 67 0
-233 85 91 0
-233 91 113 0
-233 126 131 0
-233 126 143 0
-234 18 36 0
-234 18 113 0
-234 18 123 0
-234 19 126 0
-234 23 134 0
-234 36 85 0
-234 52 145 0
-234 59 112 0
-234 89 150 0
-234 91 126 0
-234 150 152 0
-235 19 25 0
-235 19 65 0
-235 19 91 0
-235 19 126 0
-235 33 153 0
-236 18 39 0
-236 21 23 0
-236 39 119 0
-236 60 68 0
-236 77 153 0
-236 88 160 0
-236 106 154 0
-236 112 153 0
-237 10 23 0
-237 17 72 0
-237 75 147 0
-237 77 82 0
-237 106 152 0
-237 152 153 0
-238 5 131 0
-238 17 160 0
-238 23 164 0
-238 39 88 0
-238 94 112 0
-238 147 160 0
-239 11 131 0
-239 13 70 0
-239 17 94 0
-239 39 69 0
-239 72 94 0
-239 110 161 0
-239 112 119 0
-239 119 137 0
-239 128 131 0
-240 17 72 0
-240 17 94 0
-240 17 147 0
-240 78 88 0
-240 79 82 0
-240 82 161 0
-240 88 106 0
-240 88 152 0
-240 109 154 0
-240 130 160 0
-241 4 139 0
-241 13 30 0
-241 54 128 0
-241 55 63 0
-241 57 110 0
-241 59 129 0
-242 43 92 0
-242 44 160 0
-242 63 161 0
-242 78 94 0
-242 108 162 0
-242 130 135 0
-243 18 161 0
-243 24 31 0
-243 24 54 0
-243 56 87 0
-243 63 132 0
-243 102 118 0
-243 119 161 0
-243 132 147 0
-244 19 133 0
-244 24 71 0
-244 27 133 0
-244 33 80 0
-244 39 133 0
-244 41 68 0
-244 41 127 0
-244 94 133 0
-244 106 133 0
-244 126 133 0
-244 127 133 0
-244 132 133 0
-244 133 161 0
-244 133 164 0
-245 9 162 0
-245 24 41 0
-245 33 41 0
-245 44 55 0
-245 45 56 0
-245 73 77 0
-245 113 154 0
-246 6 59 0
-246 6 71 0
-246 28 42 0
-246 31 43 0
-246 65 72 0
-246 91 152 0
-246 145 158 0
-247 6 75 0
-247 6 164 0
-247 19 136 0
-247 20 71 0
-247 27 136 0
-247 33 59 0
-247 39 136 0
-247 94 136 0
-247 106 136 0
-247 126 136 0
-247 127 136 0
-247 132 136 0
-247 136 161 0
-247 136 164 0
-248 18 132 0
-248 31 98 0
-248 47 147 0
-248 56 59 0
-248 59 62 0
-248 110 161 0
-248 118 161 0
-248 119 132 0
-249 4 158 0
-249 13 70 0
-249 23 27 0
-249 42 85 0
-249 45 156 0
-249 110 132 0
-250 24 101 0
-250 28 110 0
-250 32 63 0
-250 38 135 0
-250 52 108 0
-250 62 100 0
-251 3 134 0
-251 19 140 0
-251 23 140 0
-251 27 143 0
-251 34 91 0
-251 70 85 0
-251 73 143 0
-251 113 140 0
-251 118 143 0
-251 132 134 0
-252 18 21 0
-252 18 84 0
-252 26 89 0
-252 26 100 0
-252 27 73 0
-252 27 143 0
-252 63 132 0
-252 114 126 0
-252 130 135 0
-253 26 123 0
-253 27 84 0
-253 78 127 0
-253 85 118 0
-253 85 143 0
-253 126 140 0
-254 19 113 0
-254 36 113 0
-254 65 134 0
-254 68 118 0
-254 73 143 0
-254 78 142 0
-255 18 126 0
-255 19 91 0
-255 36 65 0
-255 36 84 0
-255 75 105 0
-255 78 137 0
-255 85 140 0
-255 119 126 0
-256 22 25 0
-256 23 131 0
-256 26 78 0
-256 35 154 0
-256 60 132 0
-256 82 106 0
-256 82 152 0
-257 17 35 0
-257 17 119 0
-257 18 160 0
-257 23 131 0
-257 26 78 0
-257 37 154 0
-257 43 74 0
-257 51 131 0
-257 119 160 0
-258 20 151 0
-258 23 131 0
-258 24 55 0
-258 24 71 0
-258 26 78 0
-258 27 39 0
-258 56 162 0
-258 86 151 0
-259 14 74 0
-259 23 131 0
-259 26 78 0
-259 28 59 0
-259 31 158 0
-259 33 59 0
-259 74 80 0
-259 94 126 0
-260 18 85 0
-260 18 143 0
-260 23 131 0
-260 25 143 0
-260 26 58 0
-260 26 78 0
-260 29 91 0
-260 45 151 0
-260 85 119 0
-261 16 35 0
-261 19 134 0
-261 23 131 0
-261 25 91 0
-261 26 78 0
-261 105 161 0
-261 113 134 0
-262 17 160 0
-262 26 88 0
-262 31 49 0
-262 39 153 0
-262 43 147 0
-262 72 147 0
-262 94 112 0
-263 3 114 0
-263 41 118 0
-263 63 138 0
-263 71 118 0
-263 72 160 0
-263 89 118 0
-263 118 120 0
-263 119 147 0
-264 10 156 0
-264 42 101 0
-264 63 94 0
-264 102 141 0
-264 103 148 0
-264 112 119 0
-265 10 134 0
-265 17 147 0
-265 21 23 0
-265 59 134 0
-265 72 94 0
-265 72 119 0
-265 78 160 0
-265 95 115 0
-265 99 147 0
-265 128 134 0
-265 129 134 0
-265 134 150 0
-265 134 164 0
-266 7 35 0
-266 9 33 0
-266 23 81 0
-266 33 55 0
-266 33 146 0
-266 33 161 0
-266 35 112 0
-266 35 147 0
-266 35 157 0
-266 50 158 0
-266 52 153 0
-266 62 134 0
-266 134 135 0
-266 134 141 0
-267 8 14 0
-267 24 55 0
-267 24 71 0
-267 28 118 0
-267 42 54 0
-267 71 100 0
-267 71 101 0
-267 71 116 0
-267 71 127 0
-267 71 142 0
-267 84 100 0
-267 118 121 0
-267 118 132 0
-267 118 145 0
-267 141 158 0
-268 18 54 0
-268 31 68 0
-268 33 42 0
-268 33 93 0
-268 33 133 0
-268 33 158 0
-268 46 48 0
-268 54 119 0
-268 54 133 0
-268 55 127 0
-269 13 93 0
-269 24 161 0
-269 42 71 0
-269 54 133 0
-269 63 136 0
-269 71 93 0
-269 71 133 0
-269 71 158 0
-269 75 76 0
-270 2 121 0
-270 24 55 0
-270 24 71 0
-270 47 146 0
-270 50 131 0
-270 55 133 0
-270 67 142 0
-271 5 40 0
-271 5 48 0
-271 18 133 0
-271 24 41 0
-271 33 41 0
-271 33 71 0
-271 33 89 0
-271 33 120 0
-271 33 133 0
-271 50 107 0
-271 54 127 0
-271 54 133 0
-271 119 133 0
-272 9 10 0
-272 55 59 0
-272 68 102 0
-272 115 156 0
-272 146 150 0
-272 161 164 0
-273 24 28 0
-273 47 75 0
-273 92 124 0
-273 116 121 0
-273 127 132 0
-273 142 145 0
-274 1 159 0
-274 6 59 0
-274 6 71 0
-274 11 71 0
-274 18 136 0
-274 33 71 0
-274 40 71 0
-274 62 136 0
-274 62 164 0
-274 71 136 0
-274 103 123 0
-274 119 136 0
-274 120 123 0
-275 1 26 0
-275 10 155 0
-275 28 59 0
-275 28 136 0
-275 33 59 0
-275 49 146 0
-275 102 121 0
-276 33 44 0
-276 33 95 0
-276 33 136 0
-276 33 162 0
-276 59 132 0
-276 62 136 0
-276 68 163 0
-276 95 135 0
-276 110 133 0
-277 18 62 0
-277 28 164 0
-277 44 71 0
-277 56 75 0
-277 62 119 0
-277 62 136 0
-277 71 95 0
-277 71 136 0
-277 71 162 0
-277 103 149 0
-278 1 162 0
-278 13 82 0
-278 25 84 0
-278 25 97 0
-278 25 118 0
-278 25 125 0
-278 28 71 0
-278 36 139 0
-278 54 82 0
-278 71 121 0
-278 71 132 0
-278 71 145 0
-278 78 138 0
-278 82 90 0
-279 18 73 0
-279 23 85 0
-279 24 82 0
-279 27 73 0
-279 64 118 0
-279 78 137 0
-279 82 100 0
-279 82 101 0
-279 82 116 0
-279 82 127 0
-279 82 142 0
-279 93 124 0
-279 118 143 0
-280 18 84 0
-280 27 110 0
-280 44 129 0
-280 47 90 0
-280 48 61 0
-280 92 142 0
-281 6 147 0
-281 11 147 0
-281 18 118 0
-281 33 147 0
-281 40 147 0
-281 69 79 0
-281 73 85 0
-281 81 110 0
-282 2 56 0
-282 27 84 0
-282 36 126 0
-282 45 118 0
-282 73 118 0
-282 85 143 0
-282 131 140 0
-283 9 68 0
-283 9 132 0
-283 24 73 0
-283 35 39 0
-283 39 72 0
-283 73 100 0
-283 73 101 0
-283 73 116 0
-283 73 127 0
-283 73 142 0
-283 77 154 0
-283 78 152 0
-284 1 77 0
-284 2 77 0
-284 7 147 0
-284 9 54 0
-284 17 154 0
-284 35 106 0
-284 35 153 0
-284 60 77 0
-284 69 77 0
-284 77 82 0
-284 77 88 0
-284 77 90 0
-284 77 107 0
-284 77 137 0
-284 77 153 0
-284 106 152 0
-284 116 119 0
-285 11 116 0
-285 11 119 0
-285 22 77 0
-285 35 77 0
-285 35 82 0
-285 37 77 0
-285 38 77 0
-285 41 113 0
-285 42 73 0
-285 42 100 0
-285 58 77 0
-285 71 113 0
-285 73 93 0
-285 73 133 0
-285 73 158 0
-285 75 77 0
-285 77 98 0
-285 77 124 0
-285 77 153 0
-285 89 113 0
-285 95 119 0
-285 113 120 0
-286 2 154 0
-286 28 73 0
-286 44 160 0
-286 55 67 0
-286 73 121 0
-286 73 132 0
-286 73 145 0
-286 108 162 0
-286 110 155 0
-287 8 52 0
-287 17 111 0
-287 33 42 0
-287 41 127 0
-287 51 114 0
-287 111 150 0
-288 2 9 0
-288 20 151 0
-288 24 71 0
-288 27 39 0
-288 101 130 0
-288 104 163 0
-289 6 54 0
-289 13 93 0
-289 24 71 0
-289 52 55 0
-289 54 133 0
-289 55 127 0
-289 112 127 0
-289 128 132 0
-290 41 164 0
-290 54 55 0
-290 89 130 0
-290 101 130 0
-290 125 143 0
-290 130 160 0
-291 6 127 0
-291 11 70 0
-291 17 157 0
-291 28 62 0
-291 70 85 0
-291 70 129 0
-292 28 139 0
-292 28 164 0
-292 33 59 0
-292 41 62 0
-292 62 136 0
-292 84 164 0
-292 95 135 0
-292 100 161 0
-293 33 59 0
-293 49 145 0
-293 70 129 0
-293 74 80 0
-293 76 117 0
-293 94 126 0
-294 6 164 0
-294 44 71 0
-294 53 116 0
-294 53 143 0
-294 58 69 0
-294 139 144 0
-295 4 158 0
-295 9 72 0
-295 28 155 0
-295 42 85 0
-295 49 91 0
-295 55 72 0
-295 63 67 0
-295 72 146 0
-295 72 161 0
-296 6 152 0
-296 11 152 0
-296 16 65 0
-296 18 89 0
-296 18 93 0
-296 25 65 0
-296 25 134 0
-296 29 65 0
-296 30 65 0
-296 33 152 0
-296 36 65 0
-296 40 152 0
-296 44 72 0
-296 44 128 0
-296 51 65 0
-296 65 68 0
-296 65 87 0
-296 65 115 0
-296 72 95 0
-296 72 136 0
-296 72 162 0
-296 89 150 0
-297 18 150 0
-297 19 25 0
-297 19 113 0
-297 21 65 0
-297 25 36 0
-297 36 65 0
-297 49 65 0
-297 50 65 0
-297 62 145 0
-297 65 105 0
-297 65 114 0
-297 65 134 0
-297 65 140 0
-297 65 141 0
-297 65 159 0
-297 91 143 0
-297 97 118 0
-298 10 72 0
-298 23 113 0
-298 25 126 0
-298 59 72 0
-298 65 91 0
-298 72 128 0
-298 72 129 0
-298 72 150 0
-298 72 164 0
-298 73 126 0
-298 75 145 0
-298 145 161 0
-299 3 33 0
-299 3 116 0
-299 11 13 0
-299 26 82 0
-299 45 82 0
-299 88 147 0
-299 100 130 0
-299 123 125 0
-300 16 146 0
-300 35 77 0
-300 35 152 0
-300 40 85 0
-300 65 82 0
-300 72 82 0
-300 73 82 0
-300 77 82 0
-300 82 113 0
-300 82 152 0
-300 100 155 0
-300 140 146 0
-301 35 65 0
-301 35 72 0
-301 35 73 0
-301 35 77 0
-301 35 113 0
-301 35 152 0
-301 45 153 0
-301 77 82 0
-301 77 153 0
-301 81 156 0
-301 82 152 0
-301 119 154 0
-301 131 145 0
-302 15 57 0
-302 17 152 0
-302 26 106 0
-302 26 153 0
-302 54 63 0
-302 77 82 0
-302 82 106 0
-302 84 144 0
-302 119 152 0
-303 30 162 0
-303 49 67 0
-303 60 145 0
-303 67 131 0
-303 94 154 0
-303 124 154 0
-303 131 163 0
-304 6 54 0
-304 57 162 0
-304 62 87 0
-304 65 71 0
-304 71 72 0
-304 71 73 0
-304 71 77 0
-304 71 113 0
-304 71 152 0
-304 113 153 0
-304 136 164 0
-305 32 158 0
-305 33 65 0
-305 33 72 0
-305 33 73 0
-305 33 77 0
-305 33 113 0
-305 33 152 0
-305 36 152 0
-305 41 62 0
-305 54 98 0
-305 127 133 0
-306 2 155 0
-306 9 105 0
-306 26 76 0
-306 26 155 0
-306 27 91 0
-306 38 158 0
-306 91 115 0
-307 8 112 0
-307 18 113 0
-307 19 131 0
-307 19 134 0
-307 32 83 0
-307 36 131 0
-307 62 110 0
-307 65 134 0
-307 113 143 0
-308 9 26 0
-308 18 91 0
-308 25 65 0
-308 25 72 0
-308 25 73 0
-308 25 77 0
-308 25 113 0
-308 25 152 0
-308 36 43 0
-308 36 65 0
-308 65 134 0
-308 92 138 0
-308 113 134 0
-309 22 121 0
-309 25 65 0
-309 25 113 0
-309 65 134 0
-309 67 128 0
-309 72 134 0
-309 73 134 0
-309 77 134 0
-309 88 121 0
-309 113 134 0
-309 120 160 0
-309 134 152 0
-310 5 157 0
-310 43 134 0
-310 70 128 0
-310 71 79 0
-310 79 150 0
-310 89 135 0
-310 118 140 0
-310 131 134 0
-311 18 33 0
-311 18 144 0
-311 28 95 0
-311 72 130 0
-311 77 78 0
-311 81 143 0
-311 116 140 0
-311 130 155 0
-312 37 152 0
-312 43 144 0
-312 47 111 0
-312 50 58 0
-312 72 112 0
-313 30 113 0
-313 35 155 0
-313 36 63 0
-313 36 81 0
-313 40 95 0
-313 69 83 0
-313 69 106 0
-314 36 62 0
-314 36 135 0
-314 82 96 0
-314 98 162 0
-314 110 133 0
-315 8 21 0
-315 22 45 0
-315 24 72 0
-315 37 72 0
-315 96 123 0
-315 96 148 0
-315 96 150 0
-315 104 148 0
-315 106 164 0
-315 148 150 0
-316 24 63 0
-316 60 131 0
-316 65 105 0
-316 80 107 0
-316 87 113 0
-316 92 116 0
-317 37 89 0
-317 42 71 0
-317 61 63 0
-317 71 74 0
-318 6 132 0
-318 24 33 0
-318 33 71 0
-318 41 44 0
-318 48 151 0
-318 62 133 0
-318 100 128 0
-319 6 42 0
-319 33 71 0
-319 41 161 0
-319 54 136 0
-319 59 71 0
-319 74 103 0
-319 100 128 0
-320 11 29 0
-320 33 44 0
-320 33 151 0
-320 110 148 0
-321 20 159 0
-321 26 105 0
-321 59 110 0
-321 60 77 0
-321 98 152 0
-321 150 156 0
-322 5 12 0
-322 12 61 0
-322 12 116 0
-322 16 43 0
-322 19 127 0
-322 29 73 0
-322 59 73 0
-322 61 116 0
-322 61 117 0
-322 137 144 0
-323 12 134 0
-323 13 153 0
-323 54 153 0
-323 63 136 0
-323 87 158 0
-324 15 114 0
-324 19 114 0
-324 25 67 0
-324 38 152 0
-324 93 120 0
-324 110 153 0
-324 138 153 0
-325 1 51 0
-325 8 45 0
-325 29 113 0
-325 53 102 0
-325 73 84 0
-326 8 119 0
-326 17 138 0
-326 23 65 0
-326 55 93 0
-326 67 70 0
-326 70 73 0
-326 71 119 0
-326 88 150 0
-327 25 106 0
-327 26 39 0
-327 26 52 0
-327 26 61 0
-327 26 83 0
-327 26 109 0
-327 26 151 0
-327 33 106 0
-327 35 77 0
-327 35 106 0
-327 37 72 0
-327 71 106 0
-327 82 106 0
-327 106 118 0
-327 106 134 0
-327 106 147 0
-327 152 154 0
-328 3 101 0
-328 25 162 0
-328 30 143 0
-328 37 137 0
-328 45 56 0
-328 45 58 0
-328 45 103 0
-328 45 151 0
-328 82 106 0
-328 82 152 0
-329 21 128 0
-329 26 106 0
-329 29 64 0
-329 37 57 0
-329 50 84 0
-329 87 156 0
-330 42 100 0
-330 66 131 0
-330 77 132 0
-330 92 134 0
-330 105 113 0
-331 25 127 0
-331 33 127 0
-331 35 127 0
-331 39 56 0
-331 43 50 0
-331 56 120 0
-331 70 81 0
-331 71 127 0
-331 82 127 0
-331 118 127 0
-331 127 134 0
-331 127 147 0
-332 7 13 0
-332 54 55 0
-332 82 108 0
-332 112 137 0
-332 116 139 0
-333 4 134 0
-333 21 84 0
-333 28 62 0
-333 52 150 0
-333 97 135 0
-334 1 45 0
-334 25 164 0
-334 31 40 0
-334 31 126 0
-334 33 164 0
-334 35 164 0
-334 71 164 0
-334 82 164 0
-334 118 164 0
-334 130 138 0
-334 134 164 0
-334 147 164 0
-335 26 122 0
-335 44 128 0
-335 60 152 0
-335 65 161 0
-335 82 156 0
-336 1 112 0
-336 19 131 0
-336 29 32 0
-336 37 99 0
-336 92 98 0
-336 100 137 0
-337 17 38 0
-337 19 134 0
-337 21 29 0
-337 31 43 0
-337 35 158 0
-337 43 48 0
-337 43 51 0
-337 43 74 0
-337 79 129 0
-337 113 134 0
-338 15 131 0
-338 19 25 0
-338 19 33 0
-338 19 35 0
-338 19 71 0
-338 19 82 0
-338 19 118 0
-338 19 134 0
-338 19 147 0
-338 25 65 0
-338 29 73 0
-338 34 131 0
-338 74 131 0
-338 91 113 0
-338 126 131 0
-338 131 139 0
-338 131 148 0
-339 35 147 0
-339 52 88 0
-339 56 97 0
-339 72 160 0
-339 77 136 0
-340 11 99 0
-340 16 158 0
-340 17 35 0
-340 31 49 0
-340 32 64 0
-340 35 37 0
-340 118 143 0
-341 9 21 0
-341 19 21 0
-341 22 42 0
-341 39 88 0
-341 39 112 0
-341 45 54 0
-341 57 82 0
-341 71 102 0
-342 6 54 0
-342 28 72 0
-342 65 161 0
-342 72 161 0
-342 73 161 0
-342 77 161 0
-342 103 123 0
-342 113 161 0
-342 127 136 0
-342 136 163 0
-342 152 161 0
-343 5 48 0
-343 41 62 0
-343 55 73 0
-343 65 132 0
-343 72 132 0
-343 73 132 0
-343 76 133 0
-343 77 132 0
-343 113 132 0
-343 132 152 0
-343 133 164 0
-344 16 44 0
-344 32 134 0
-344 33 47 0
-344 43 62 0
-344 84 126 0
-344 106 137 0
-344 126 140 0
-344 137 145 0
-345 2 56 0
-345 17 147 0
-345 22 162 0
-345 25 29 0
-345 25 143 0
-345 57 99 0
-345 64 89 0
-346 7 31 0
-346 25 118 0
-346 65 133 0
-346 73 85 0
-346 139 140 0
-347 23 25 0
-347 23 33 0
-347 23 35 0
-347 23 71 0
-347 23 82 0
-347 23 118 0
-347 23 134 0
-347 23 147 0
-347 25 65 0
-347 29 47 0
-347 37 47 0
-347 38 97 0
-347 47 88 0
-347 47 100 0
-347 47 128 0
-347 47 140 0
-347 67 106 0
-347 101 105 0
-347 112 149 0
-348 26 71 0
-348 44 133 0
-348 71 131 0
-348 88 113 0
-348 97 118 0
-348 106 137 0
-348 127 164 0
-349 7 147 0
-349 19 21 0
-349 26 33 0
-349 33 131 0
-349 42 136 0
-349 127 164 0
-349 140 152 0
-350 22 63 0
-350 22 110 0
-350 71 101 0
-350 73 157 0
-350 88 130 0
-350 93 109 0
-350 93 124 0
-350 101 111 0
-351 55 160 0
-351 64 117 0
-351 78 160 0
-351 95 122 0
-352 52 69 0
-352 73 138 0
-352 106 147 0
-352 130 155 0
-352 139 162 0
-353 35 130 0
-353 77 88 0
-353 153 160 0
-354 22 124 0
-354 26 38 0
-354 29 161 0
-354 46 100 0
-354 62 128 0
-354 63 136 0
-354 70 161 0
-354 100 151 0
-354 102 124 0
-355 16 115 0
-355 30 131 0
-355 37 132 0
-355 47 115 0
-355 54 100 0
-355 74 128 0
-355 110 133 0
-355 128 149 0
-355 130 132 0
-356 25 70 0
-356 36 85 0
-356 65 140 0
-357 19 118 0
-357 52 158 0
-357 67 70 0
-357 72 81 0
-357 114 139 0
-358 23 85 0
-358 28 85 0
-358 66 93 0
-358 99 104 0
-359 16 63 0
-359 16 110 0
-359 33 129 0
-359 34 95 0
-359 53 129 0
-359 70 140 0
-359 72 125 0
-359 95 115 0
-360 25 68 0
-360 35 75 0
-360 41 60 0
-360 49 157 0
-360 57 79 0
-360 67 75 0
-360 75 155 0
-360 81 128 0
-361 2 125 0
-361 3 32 0
-361 6 105 0
-361 25 68 0
-361 35 75 0
-361 67 68 0
-361 68 155 0
-361 100 138 0
-362 14 88 0
-362 63 164 0
-362 72 106 0
-362 76 88 0
-362 79 88 0
-362 81 90 0
-362 88 96 0
-362 88 106 0
-362 88 155 0
-363 26 137 0
-363 29 41 0
-363 29 71 0
-363 29 89 0
-363 29 120 0
-363 32 79 0
-363 33 154 0
-363 37 155 0
-363 57 79 0
-363 70 79 0
-363 75 143 0
-363 79 88 0
-363 79 130 0
-364 20 45 0
-364 23 63 0
-364 31 108 0
-364 47 120 0
-365 4 56 0
-365 40 102 0
-365 43 80 0
-365 78 110 0
-366 3 32 0
-366 3 57 0
-366 3 70 0
-366 3 130 0
-366 3 140 0
-366 6 37 0
-366 11 37 0
-366 17 68 0
-366 21 131 0
-366 29 67 0
-366 33 37 0
-366 37 40 0
-366 71 91 0
-367 3 140 0
-367 12 140 0
-367 19 73 0
-367 19 140 0
-367 67 140 0
-367 86 140 0
-367 110 127 0
-367 138 141 0
-367 140 163 0
-368 38 81 0
-368 63 83 0
-368 83 110 0
-368 133 160 0
-369 1 57 0
-369 2 57 0
-369 3 155 0
-369 19 22 0
-369 39 130 0
-369 52 130 0
-369 54 60 0
-369 57 60 0
-369 57 69 0
-369 57 82 0
-369 57 88 0
-369 57 90 0
-369 57 107 0
-369 57 137 0
-369 57 153 0
-369 61 130 0
-369 79 155 0
-369 83 130 0
-369 109 130 0
-369 130 151 0
-369 130 155 0
-370 4 43 0
-370 25 114 0
-370 26 119 0
-370 71 113 0
-370 78 79 0
-370 79 83 0
-371 25 120 0
-371 35 41 0
-371 41 60 0
-371 61 88 0
-371 64 117 0
-371 100 160 0
-371 108 110 0
-372 8 130 0
-372 26 130 0
-372 29 112 0
-372 56 130 0
-372 57 130 0
-372 77 130 0
-372 108 123 0
-372 112 161 0
-373 19 131 0
-373 45 68 0
-373 53 67 0
-373 53 70 0
-373 82 130 0
-373 136 164 0
-374 13 93 0
-374 30 162 0
-374 34 146 0
-374 35 42 0
-374 54 133 0
-375 30 86 0
-375 30 110 0
-375 47 145 0
-375 56 64 0
-375 60 155 0
-375 110 144 0
-375 141 163 0
-376 8 63 0
-376 9 102 0
-376 14 38 0
-376 31 99 0
-376 38 63 0
-376 67 105 0
-376 76 90 0
-377 25 44 0
-377 38 158 0
-377 62 136 0
-377 95 135 0
-377 109 121 0
-378 26 106 0
-378 43 75 0
-378 70 134 0
-378 111 130 0
-378 111 155 0
-378 127 133 0
-379 4 5 0
-379 31 70 0
-379 32 70 0
-379 37 84 0
-379 65 70 0
-379 70 131 0
-379 70 144 0
-379 84 132 0
-380 4 63 0
-380 6 25 0
-380 6 105 0
-380 35 40 0
-380 85 128 0
-380 99 104 0
-380 140 148 0
-381 3 15 0
-381 3 23 0
-381 18 131 0
-381 33 152 0
-381 35 69 0
-381 45 108 0
-382 3 67 0
-382 15 70 0
-382 16 106 0
-382 21 32 0
-382 32 36 0
-382 32 49 0
-382 32 50 0
-382 32 105 0
-382 32 114 0
-382 32 134 0
-382 32 140 0
-382 32 141 0
-382 32 159 0
-382 34 70 0
-382 62 105 0
-382 67 70 0
-382 67 79 0
-382 70 74 0
-382 70 126 0
-382 70 139 0
-382 70 148 0
-383 15 63 0
-383 15 110 0
-383 30 138 0
-383 85 136 0
-384 42 94 0
-384 43 107 0
-384 57 75 0
-384 57 80 0
-384 79 155 0
-384 83 137 0
-384 88 155 0
-384 130 155 0
-384 147 154 0
-385 1 24 0
-385 1 79 0
-385 2 79 0
-385 60 79 0
-385 63 90 0
-385 69 79 0
-385 75 83 0
-385 79 82 0
-385 79 88 0
-385 79 90 0
-385 79 107 0
-385 79 137 0
-385 79 153 0
-385 83 130 0
-385 83 155 0
-385 87 96 0
-385 102 137 0
-386 3 44 0
-386 3 95 0
-386 3 136 0
-386 3 162 0
-386 25 162 0
-386 37 72 0
-386 40 102 0
-386 94 153 0
-386 132 152 0
-387 7 56 0
-387 77 88 0
-387 88 98 0
-388 6 164 0
-388 17 54 0
-388 17 55 0
-388 28 94 0
-388 49 117 0
-388 65 129 0
-388 67 110 0
-388 110 155 0
-389 2 104 0
-389 27 55 0
-389 28 143 0
-389 41 127 0
-389 62 143 0
-389 63 67 0
-389 63 155 0
-389 77 101 0
-390 31 97 0
-390 65 140 0
-390 87 140 0
-391 27 36 0
-391 29 73 0
-391 35 158 0
-391 42 79 0
-391 47 120 0
-391 79 93 0
-391 79 133 0
-391 79 158 0
-391 113 161 0
-392 3 21 0
-392 3 36 0
-392 3 49 0
-392 3 50 0
-392 3 105 0
-392 3 114 0
-392 3 134 0
-392 3 140 0
-392 3 141 0
-392 3 159 0
-392 12 98 0
-392 15 67 0
-392 15 68 0
-392 15 70 0
-392 21 47 0
-392 50 59 0
-392 110 141 0
-393 3 67 0
-393 15 21 0
-393 20 32 0
-393 27 44 0
-393 32 68 0
-393 45 159 0
-393 67 70 0
-393 67 140 0
-393 91 118 0
-394 3 130 0
-394 11 85 0
-394 36 162 0
-394 39 155 0
-394 52 155 0
-394 59 137 0
-394 61 155 0
-394 79 130 0
-394 83 155 0
-394 109 155 0
-394 122 133 0
-394 130 155 0
-394 151 155 0
-395 1 100 0
-395 46 80 0
-395 73 84 0
-395 79 130 0
-395 79 155 0
-395 88 129 0
-396 15 137 0
-396 79 130 0
-396 83 137 0
-396 90 129 0
-396 119 130 0
-396 121 140 0
-397 6 67 0
-397 11 67 0
-397 13 116 0
-397 33 67 0
-397 37 155 0
-397 40 67 0
-397 57 88 0
-397 62 154 0
-397 79 88 0
-397 81 128 0
-398 22 102 0
-398 37 79 0
-398 57 88 0
-398 67 142 0
-398 67 145 0
-398 79 83 0
-398 154 161 0
-399 22 155 0
-399 35 155 0
-399 37 83 0
-399 37 155 0
-399 38 155 0
-399 42 61 0
-399 57 102 0
-399 58 155 0
-399 62 110 0
-399 69 83 0
-399 75 155 0
-399 98 155 0
-399 113 150 0
-399 124 155 0
-400 6 63 0
-400 11 122 0
-400 37 147 0
-400 57 137 0
-400 111 130 0
-401 22 155 0
-401 26 94 0
-401 58 79 0
-401 82 83 0
-401 100 132 0
-401 110 160 0
-402 2 129 0
-402 7 93 0
-402 7 121 0
-402 24 42 0
-402 82 118 0
-402 93 121 0
-402 97 107 0
-402 142 150 0
-402 142 158 0
-402 150 158 0
-403 4 111 0
-403 45 151 0
-403 67 86 0
-403 70 86 0
-403 79 109 0
-403 83 113 0
-403 96 100 0
-404 3 34 0
-404 12 128 0
-404 14 130 0
-404 14 155 0
-404 15 152 0
-404 43 74 0
-404 53 108 0
-405 7 159 0
-405 10 116 0
-405 10 162 0
-405 44 59 0
-405 49 101 0
-405 95 97 0
-405 95 146 0
-405 97 146 0
-405 116 162 0
-405 134 147 0
-406 3 51 0
-406 15 134 0
-406 16 67 0
-406 27 131 0
-406 63 85 0
-406 128 161 0
-407 21 32 0
-407 29 118 0
-407 41 110 0
-407 53 70 0
-407 66 89 0
-408 15 29 0
-408 15 114 0
-408 16 67 0
-408 25 67 0
-408 29 67 0
-408 30 67 0
-408 32 47 0
-408 44 148 0
-408 51 67 0
-408 54 63 0
-408 67 68 0
-408 67 87 0
-408 67 115 0
-408 116 152 0
-409 3 15 0
-409 3 29 0
-409 9 155 0
-409 10 155 0
-409 16 47 0
-409 32 140 0
-409 91 132 0
-410 3 140 0
-410 29 67 0
-410 32 140 0
-410 41 155 0
-410 54 91 0
-410 71 155 0
-410 89 155 0
-410 100 138 0
-410 120 155 0
-410 135 150 0
-411 3 70 0
-411 15 21 0
-411 18 70 0
-411 21 83 0
-411 88 146 0
-411 101 141 0
-412 3 67 0
-412 3 70 0
-412 20 149 0
-412 50 128 0
-412 72 112 0
-412 101 140 0
-413 3 70 0
-413 15 67 0
-413 21 24 0
-413 34 67 0
-413 66 136 0
-413 67 70 0
-413 67 74 0
-413 67 126 0
-413 67 139 0
-413 67 148 0
-413 70 79 0
-413 89 160 0
-413 153 158 0
-414 16 101 0
-414 75 102 0
-414 76 89 0
-414 79 88 0
-414 83 143 0
-414 112 133 0
-415 3 88 0
-415 15 69 0
-415 26 147 0
-415 69 83 0
-415 76 89 0
-415 79 88 0
-415 105 147 0
-416 28 39 0
-416 37 155 0
-416 52 79 0
-416 67 134 0
-416 79 88 0
-416 83 155 0
-416 153 160 0
-417 8 129 0
-417 12 25 0
-417 69 83 0
-417 75 79 0
-417 130 137 0
-418 11 70 0
-418 26 79 0
-418 26 88 0
-418 57 160 0
-418 67 94 0
-418 137 155 0
-419 9 18 0
-419 14 79 0
-419 20 45 0
-419 29 113 0
-419 44 156 0
-419 55 77 0
-419 79 111 0
-419 79 119 0
-419 79 153 0
-420 1 64 0
-420 1 83 0
-420 20 103 0
-420 20 138 0
-420 28 65 0
-420 28 161 0
-420 30 100 0
-420 43 146 0
-420 60 129 0
-420 100 144 0
-421 8 128 0
-421 15 50 0
-421 38 128 0
-421 45 121 0
-421 48 80 0
-421 50 99 0
-421 55 77 0
-421 55 132 0
-421 80 81 0
-421 101 105 0
-422 3 18 0
-422 3 36 0
-422 3 53 0
-422 3 86 0
-422 28 65 0
-422 37 152 0
-422 42 92 0
-422 43 80 0
-422 119 145 0
-423 3 131 0
-423 21 67 0
-423 27 155 0
-423 32 85 0
-423 89 130 0
-423 131 140 0
-424 3 68 0
-424 15 114 0
-424 21 70 0
-424 35 96 0
-424 101 144 0
-425 3 139 0
-425 3 140 0
-425 15 67 0
-425 29 67 0
-425 36 85 0
-425 55 126 0
-425 82 155 0
-426 3 140 0
-426 11 163 0
-426 15 114 0
-426 60 118 0
-426 79 140 0
-426 83 114 0
-426 118 131 0
-427 3 140 0
-427 11 163 0
-427 15 17 0
-427 22 129 0
-427 47 68 0
-427 84 136 0
-428 16 29 0
-428 22 37 0
-428 22 155 0
-428 37 155 0
-428 75 130 0
-428 75 155 0
-428 79 88 0
-428 101 109 0
-428 127 154 0
-429 16 29 0
-429 22 37 0
-429 38 67 0
-429 54 128 0
-429 72 94 0
-429 126 148 0
-430 16 29 0
-430 22 37 0
-430 27 73 0
-430 30 155 0
-430 39 61 0
-430 62 100 0
-431 3 140 0
-431 16 29 0
-431 16 67 0
-431 22 37 0
-431 29 67 0
-431 34 129 0
-431 67 68 0
-431 68 70 0
-431 91 164 0
-432 14 55 0
-432 22 102 0
-432 28 137 0
-432 33 137 0
-432 62 81 0
-432 69 75 0
-432 102 137 0
-433 22 52 0
-433 22 155 0
-433 32 158 0
-433 52 69 0
-434 22 102 0
-434 26 94 0
-434 45 99 0
-434 63 129 0
-435 8 83 0
-435 22 57 0
-435 26 72 0
-435 39 133 0
-435 56 83 0
-435 57 83 0
-435 77 83 0
-435 110 154 0
-436 15 63 0
-436 15 81 0
-436 33 72 0
-436 41 60 0
-436 96 146 0
-436 106 161 0
-436 126 136 0
-437 24 71 0
-437 29 117 0
-437 32 117 0
-437 37 137 0
-437 84 147 0
-437 97 138 0
-437 135 139 0
-438 1 118 0
-438 22 78 0
-438 27 60 0
-438 36 132 0
-438 56 97 0
-438 88 132 0
-438 109 120 0
-439 16 79 0
-439 24 73 0
-439 32 92 0
-439 59 133 0
-439 61 82 0
-439 122 141 0
-440 3 22 0
-440 24 136 0
-440 57 156 0
-440 59 72 0
-440 66 90 0
-440 134 148 0
-441 7 31 0
-441 16 23 0
-441 34 40 0
-441 50 147 0
-441 94 105 0
-441 140 161 0
-441 153 161 0
-442 7 81 0
-442 13 52 0
-442 21 29 0
-442 33 59 0
-442 37 104 0
-442 57 104 0
-442 112 118 0
-443 6 105 0
-443 12 121 0
-443 19 132 0
-443 39 133 0
-443 71 73 0
-443 83 110 0
-443 83 138 0
-444 15 31 0
-444 15 32 0
-444 15 65 0
-444 15 144 0
-444 16 32 0
-444 63 91 0
-444 73 131 0
-444 126 136 0
-445 16 47 0
-445 27 131 0
-445 43 64 0
-445 101 110 0
-446 3 47 0
-446 3 139 0
-446 15 21 0
-446 15 36 0
-446 15 49 0
-446 15 50 0
-446 15 105 0
-446 15 114 0
-446 15 134 0
-446 15 140 0
-446 15 141 0
-446 15 159 0
-446 29 47 0
-446 95 160 0
-446 115 129 0
-446 119 142 0
-446 135 150 0
-447 16 67 0
-447 16 139 0
-447 57 162 0
-447 114 139 0
-448 16 47 0
-448 21 47 0
-448 21 55 0
-448 21 71 0
-448 28 86 0
-448 54 138 0
-448 68 114 0
-449 15 139 0
-449 19 121 0
-449 50 72 0
-449 52 83 0
-449 52 102 0
-450 15 139 0
-450 22 52 0
-450 22 155 0
-450 52 83 0
-450 52 137 0
-450 57 75 0
-450 76 161 0
-450 83 102 0
-450 105 126 0
-451 15 139 0
-451 19 88 0
-451 19 131 0
-451 37 83 0
-451 52 83 0
-451 52 137 0
-451 69 75 0
-451 72 82 0
-451 79 83 0
-452 15 139 0
-452 24 147 0
-452 52 83 0
-452 52 156 0
-452 56 162 0
-452 102 152 0
-452 124 129 0
-453 15 139 0
-453 31 158 0
-453 47 113 0
-453 52 83 0
-453 59 118 0
-453 92 139 0
-453 101 115 0
-454 3 15 0
-454 15 29 0
-454 15 139 0
-454 21 139 0
-454 26 106 0
-454 52 83 0
-454 68 114 0
-454 73 134 0
-454 106 140 0
-455 1 73 0
-455 15 139 0
-455 47 139 0
-455 52 83 0
-455 106 146 0
-456 14 55 0
-456 21 113 0
-456 22 52 0
-456 22 69 0
-456 24 155 0
-456 71 78 0
-456 78 143 0
-456 118 162 0
-457 1 52 0
-457 2 52 0
-457 8 75 0
-457 22 137 0
-457 52 60 0
-457 52 69 0
-457 52 82 0
-457 52 88 0
-457 52 90 0
-457 52 107 0
-457 52 137 0
-457 52 153 0
-457 54 74 0
-457 56 75 0
-457 57 75 0
-457 65 153 0
-457 75 77 0
-457 97 148 0
-458 30 41 0
-458 35 37 0
-458 35 42 0
-458 35 127 0
-458 41 144 0
-458 42 61 0
-459 2 129 0
-459 10 68 0
-459 11 85 0
-459 16 95 0
-459 38 59 0
-459 59 68 0
-459 68 128 0
-459 68 129 0
-459 68 150 0
-459 68 164 0
-459 72 88 0
-460 22 93 0
-460 24 30 0
-460 24 75 0
-460 49 101 0
-460 73 140 0
-460 75 100 0
-460 75 101 0
-460 75 116 0
-460 75 127 0
-460 75 142 0
-460 89 160 0
-461 6 8 0
-461 6 38 0
-461 25 29 0
-461 25 44 0
-461 25 164 0
-461 44 148 0
-462 7 61 0
-462 16 21 0
-462 21 139 0
-462 31 68 0
-462 32 68 0
-462 36 77 0
-462 36 139 0
-462 49 139 0
-462 50 139 0
-462 62 151 0
-462 65 68 0
-462 68 144 0
-462 105 139 0
-462 114 139 0
-462 134 139 0
-462 139 140 0
-462 139 141 0
-462 139 159 0
-463 16 114 0
-463 16 139 0
-463 17 23 0
-463 23 33 0
-463 28 86 0
-463 59 67 0
-463 137 152 0
-463 147 158 0
-464 21 22 0
-464 22 137 0
-464 60 108 0
-464 69 75 0
-464 69 137 0
-464 73 159 0
-464 83 137 0
-464 84 138 0
-465 6 114 0
-465 11 114 0
-465 33 114 0
-465 40 114 0
-465 52 155 0
-465 54 122 0
-465 57 128 0
-465 61 87 0
-465 75 137 0
-466 2 141 0
-466 29 145 0
-466 37 137 0
-466 37 152 0
-466 40 84 0
-466 85 93 0
-466 100 162 0
-467 10 114 0
-467 15 135 0
-467 20 138 0
-467 29 125 0
-467 32 125 0
-467 41 82 0
-467 59 114 0
-467 63 120 0
-467 114 128 0
-467 114 129 0
-467 114 150 0
-467 114 164 0
-468 18 81 0
-468 24 71 0
-468 25 139 0
-468 52 56 0
-468 57 77 0
-468 77 155 0
-468 81 118 0
-469 31 139 0
-469 32 65 0
-469 33 59 0
-469 35 52 0
-469 65 67 0
-469 119 138 0
-469 138 147 0
-470 6 134 0
-470 13 83 0
-470 24 69 0
-470 37 157 0
-470 40 110 0
-470 57 157 0
-470 69 100 0
-470 69 101 0
-470 69 116 0
-470 69 127 0
-470 69 142 0
-470 80 81 0
-471 9 37 0
-471 21 29 0
-471 29 113 0
-471 49 90 0
-471 95 160 0
-471 112 120 0
-471 128 158 0
-472 21 68 0
-472 32 100 0
-472 41 69 0
-472 62 66 0
-472 67 139 0
-472 69 71 0
-472 69 89 0
-472 69 120 0
-472 98 148 0
-473 4 105 0
-473 15 21 0
-473 16 21 0
-473 16 137 0
-473 21 114 0
-473 68 114 0
-473 72 107 0
-473 81 112 0
-474 16 35 0
-474 21 41 0
-474 21 71 0
-474 21 89 0
-474 21 120 0
-474 47 83 0
-474 52 69 0
-474 52 83 0
-474 52 114 0
-474 68 83 0
-474 75 83 0
-474 83 102 0
-474 83 139 0
-474 101 122 0
-474 119 127 0
-474 119 154 0
-475 6 58 0
-475 15 155 0
-475 22 69 0
-475 34 141 0
-475 42 126 0
-475 43 107 0
-475 52 69 0
-475 83 155 0
-476 14 101 0
-476 22 137 0
-476 23 64 0
-476 52 160 0
-476 69 75 0
-476 69 137 0
-476 75 114 0
-476 77 100 0
-477 9 76 0
-477 9 122 0
-477 22 69 0
-477 22 83 0
-477 22 137 0
-477 35 137 0
-477 37 137 0
-477 38 137 0
-477 57 102 0
-477 58 137 0
-477 62 155 0
-477 69 75 0
-477 71 155 0
-477 75 137 0
-477 98 137 0
-477 102 155 0
-477 124 137 0
-477 155 164 0
-478 22 57 0
-478 55 78 0
-478 60 99 0
-478 99 105 0
-478 102 155 0
-478 103 129 0
-478 103 138 0
-479 11 85 0
-479 14 116 0
-479 37 100 0
-479 38 101 0
-479 97 103 0
-479 136 164 0
-480 1 146 0
-480 6 112 0
-480 7 11 0
-480 33 127 0
-480 33 147 0
-480 35 127 0
-480 40 157 0
-480 72 155 0
-480 127 147 0
-481 7 48 0
-481 29 128 0
-481 30 129 0
-481 86 150 0
-481 89 160 0
-481 127 133 0
-482 16 32 0
-482 23 28 0
-482 47 67 0
-482 48 81 0
-482 48 101 0
-482 60 64 0
-482 64 105 0
-483 15 16 0
-483 16 21 0
-483 16 114 0
-483 21 25 0
-483 21 29 0
-483 21 30 0
-483 21 51 0
-483 21 68 0
-483 21 87 0
-483 21 115 0
-483 32 47 0
-483 33 67 0
-483 47 67 0
-483 54 67 0
-483 66 145 0
-483 67 127 0
-483 68 114 0
-483 145 163 0
-484 16 21 0
-484 21 114 0
-484 65 128 0
-484 68 69 0
-484 68 114 0
-484 78 99 0
-484 85 139 0
-484 86 129 0
-485 15 67 0
-485 16 114 0
-485 39 44 0
-485 41 51 0
-485 45 159 0
-485 67 83 0
-485 90 109 0
-485 114 139 0
-486 6 137 0
-486 11 137 0
-486 15 47 0
-486 15 52 0
-486 15 68 0
-486 15 75 0
-486 15 102 0
-486 15 139 0
-486 18 91 0
-486 18 164 0
-486 22 25 0
-486 33 137 0
-486 40 137 0
-486 66 129 0
-486 69 139 0
-486 114 139 0
-487 22 52 0
-487 46 60 0
-487 46 105 0
-487 52 69 0
-487 61 157 0
-487 76 101 0
-487 79 83 0
-488 42 147 0
-488 50 103 0
-488 75 83 0
-488 75 102 0
-488 83 137 0
-488 87 151 0
-488 98 151 0
-488 102 137 0
-489 3 95 0
-489 14 55 0
-489 21 160 0
-489 45 92 0
-489 53 133 0
-489 69 79 0
-489 75 79 0
-489 79 153 0
-489 110 160 0
-490 3 65 0
-490 21 29 0
-490 76 116 0
-490 94 100 0
-490 101 103 0
-490 136 164 0
-491 27 128 0
-491 37 137 0
-491 48 129 0
-491 77 79 0
-491 127 133 0
-491 150 163 0
-492 3 36 0
-492 3 68 0
-492 3 114 0
-492 28 86 0
-492 43 156 0
-492 63 85 0
-492 79 93 0
-492 85 137 0
-492 111 136 0
-493 1 48 0
-493 15 21 0
-493 15 68 0
-493 21 47 0
-493 44 118 0
-493 47 68 0
-493 74 87 0
-493 74 98 0
-494 3 15 0
-494 16 139 0
-494 60 149 0
-494 105 149 0
-494 114 139 0
-494 125 148 0
-494 129 163 0
-495 16 21 0
-495 16 139 0
-495 21 22 0
-495 39 43 0
-495 67 128 0
-495 91 92 0
-495 131 152 0
-495 154 156 0
-496 24 71 0
-496 25 87 0
-496 33 94 0
-496 35 98 0
-496 76 161 0
-496 94 124 0
-496 110 153 0
-496 132 153 0
-497 25 87 0
-497 27 71 0
-497 27 115 0
-497 33 59 0
-497 35 98 0
-497 36 63 0
-497 36 161 0
-497 132 163 0
-498 1 82 0
-498 16 75 0
-498 22 75 0
-498 29 35 0
-498 35 37 0
-498 35 88 0
-498 35 100 0
-498 35 128 0
-498 35 140 0
-498 50 134 0
-498 60 77 0
-498 84 101 0
-499 1 82 0
-499 41 83 0
-499 50 134 0
-499 83 137 0
-499 88 100 0
-500 1 82 0
-500 6 15 0
-500 15 21 0
-500 50 134 0
-500 128 140 0
-501 1 82 0
-501 16 68 0
-501 22 68 0
-501 25 29 0
-501 25 37 0
-501 25 88 0
-501 25 100 0
-501 25 128 0
-501 25 140 0
-501 50 134 0
-501 65 105 0
-501 112 129 0
-502 1 124 0
-502 10 18 0
-502 36 105 0
-502 41 119 0
-502 58 114 0
-502 60 77 0
-502 60 145 0
-502 60 153 0
-502 77 153 0
-503 5 60 0
-503 5 105 0
-503 25 69 0
-503 27 101 0
-503 39 88 0
-503 84 101 0
-503 123 126 0
-504 37 106 0
-504 69 130 0
-504 78 91 0
-504 82 161 0
-504 86 92 0
-504 90 138 0
-505 3 162 0
-505 6 15 0
-505 64 131 0
-505 69 75 0
-505 92 142 0
-505 126 128 0
-506 21 84 0
-506 34 99 0
-506 63 135 0
-506 97 118 0
-506 99 109 0
-506 136 164 0
-507 1 96 0
-507 12 98 0
-507 26 152 0
-507 30 44 0
-507 34 116 0
-507 48 98 0
-507 59 94 0
-507 59 112 0
-507 96 123 0
-508 56 129 0
-508 57 78 0
-508 58 129 0
-508 78 155 0
-508 94 130 0
-508 96 146 0
-508 103 129 0
-508 105 142 0
-508 106 161 0
-508 129 151 0
-509 1 80 0
-509 2 7 0
-509 19 74 0
-509 24 88 0
-509 29 84 0
-509 139 145 0
-510 9 52 0
-510 20 50 0
-510 37 112 0
-510 49 97 0
-510 59 140 0
-510 106 151 0
-511 10 60 0
-511 12 121 0
-511 19 132 0
-511 23 32 0
-511 23 67 0
-511 27 70 0
-511 31 101 0
-511 48 101 0
-511 51 101 0
-511 74 101 0
-512 5 12 0
-512 12 50 0
-512 24 27 0
-512 24 84 0
-512 38 42 0
-512 87 96 0
-512 87 103 0
-512 109 150 0
-512 113 131 0
-513 7 147 0
-513 13 110 0
-513 34 64 0
-513 64 109 0
-513 112 137 0
-513 127 133 0
-514 10 156 0
-514 26 99 0
-514 39 100 0
-514 41 83 0
-514 68 114 0
-514 79 158 0
-515 14 156 0
-515 19 29 0
-515 23 154 0
-515 70 114 0
-515 81 141 0
-515 132 134 0
-516 5 39 0
-516 35 114 0
-516 60 123 0
-516 94 129 0
-516 105 123 0
-516 112 129 0
-516 126 140 0
-517 21 130 0
-517 29 78 0
-517 34 103 0
-517 37 78 0
-517 56 162 0
-517 58 162 0
-517 78 88 0
-517 78 100 0
-517 78 128 0
-517 78 140 0
-517 82 155 0
-517 103 109 0
-517 103 162 0
-517 130 137 0
-517 151 162 0
-518 2 60 0
-518 2 105 0
-518 3 144 0
-518 31 42 0
-518 42 48 0
-518 42 51 0
-518 42 74 0
-518 67 82 0
-518 82 155 0
-518 86 146 0
-518 110 119 0
-519 8 153 0
-519 15 69 0
-519 27 64 0
-519 35 67 0
-519 35 155 0
-519 41 72 0
-519 132 160 0
-520 6 73 0
-520 25 67 0
-520 25 155 0
-520 36 144 0
-520 83 114 0
-520 85 161 0
-520 94 99 0
-521 8 79 0
-521 14 121 0
-521 18 63 0
-521 44 56 0
-521 44 58 0
-521 44 103 0
-521 44 151 0
-521 49 60 0
-521 49 105 0
-521 67 134 0
-521 134 155 0
-522 21 70 0
-522 23 29 0
-522 23 37 0
-522 23 88 0
-522 23 100 0
-522 23 128 0
-522 23 140 0
-522 31 158 0
-522 34 48 0
-522 48 109 0
-522 48 158 0
-522 51 158 0
-522 67 134 0
-522 70 137 0
-522 74 158 0
-523 5 121 0
-523 6 11 0
-523 7 112 0
-523 41 89 0
-523 54 84 0
-523 84 97 0
-523 92 128 0
-523 92 143 0
-523 128 154 0
-524 12 41 0
-524 39 67 0
-524 39 155 0
-524 40 46 0
-524 41 123 0
-524 41 149 0
-524 59 81 0
-524 67 117 0
-524 133 154 0
-525 39 43 0
-525 59 149 0
-525 83 110 0
-526 19 37 0
-526 25 45 0
-526 25 57 0
-526 82 83 0
-526 105 158 0
-527 15 134 0
-527 29 106 0
-527 32 35 0
-527 35 43 0
-527 60 162 0
-528 15 63 0
-528 24 46 0
-528 45 126 0
-529 5 6 0
-529 6 46 0
-529 6 96 0
-529 24 138 0
-529 67 126 0
-529 91 136 0
-529 104 155 0
-529 120 149 0
-529 126 155 0
-530 6 78 0
-530 10 63 0
-530 14 151 0
-530 18 86 0
-530 19 120 0
-530 23 120 0
-530 86 151 0
-530 93 103 0
-530 113 120 0
-531 10 23 0
-531 72 151 0
-531 109 138 0
-532 8 51 0
-532 12 38 0
-532 21 42 0
-532 51 73 0
-532 107 109 0
-533 30 96 0
-533 34 159 0
-533 44 137 0
-533 58 72 0
-533 58 144 0
-534 34 81 0
-534 73 74 0
-534 78 142 0
-535 14 74 0
-535 14 119 0
-535 23 41 0
-535 40 78 0
-535 40 106 0
-535 40 152 0
-535 48 95 0
-535 74 86 0
-535 110 142 0
-536 14 107 0
-536 15 154 0
-536 30 46 0
-536 35 44 0
-536 38 46 0
-536 39 44 0
-536 44 77 0
-536 44 154 0
-536 46 90 0
-536 46 101 0
-536 46 129 0
-536 46 141 0
-536 60 122 0
-536 83 154 0
-536 105 122 0
-537 14 107 0
-537 21 153 0
-537 25 158 0
-537 32 163 0
-537 65 158 0
-537 67 161 0
-537 86 107 0
-537 91 158 0
-537 104 138 0
-537 126 158 0
-537 137 153 0
-538 1 34 0
-538 2 57 0
-538 14 58 0
-538 20 143 0
-538 43 120 0
-538 58 86 0
-538 108 121 0
-539 4 146 0
-539 14 51 0
-539 17 80 0
-539 32 49 0
-539 40 45 0
-539 50 109 0
-539 51 86 0
-540 14 159 0
-540 21 36 0
-540 35 162 0
-540 36 137 0
-540 39 162 0
-540 57 76 0
-540 77 162 0
-540 81 117 0
-540 86 159 0
-540 132 155 0
-540 154 162 0
-541 15 91 0
-541 25 42 0
-541 30 149 0
-541 38 149 0
-541 42 65 0
-541 42 91 0
-541 42 126 0
-541 60 66 0
-541 66 105 0
-541 83 91 0
-541 86 159 0
-541 90 149 0
-541 101 149 0
-541 129 149 0
-541 141 149 0
-542 1 51 0
-542 20 100 0
-542 21 152 0
-542 74 113 0
-542 90 151 0
-542 100 125 0
-542 137 152 0
-543 1 122 0
-543 38 96 0
-543 46 48 0
-543 47 67 0
-543 88 110 0
-543 107 146 0
-544 1 124 0
-544 24 47 0
-544 34 40 0
-544 44 163 0
-544 53 143 0
-544 74 129 0
-545 15 17 0
-545 17 83 0
-545 62 81 0
-545 95 150 0
-545 97 118 0
-545 105 125 0
-546 5 111 0
-546 10 80 0
-546 10 157 0
-546 15 127 0
-546 19 22 0
-546 22 91 0
-546 29 162 0
-546 69 106 0
-546 106 113 0
-547 8 46 0
-547 14 46 0
-547 21 24 0
-547 35 128 0
-547 39 128 0
-547 77 128 0
-547 80 122 0
-547 96 146 0
-547 106 161 0
-547 128 154 0
-548 12 126 0
-548 28 148 0
-548 30 125 0
-548 69 94 0
-548 90 142 0
-548 147 153 0
-549 10 141 0
-549 27 114 0
-549 36 118 0
-549 38 157 0
-549 39 96 0
-549 55 61 0
-550 12 121 0
-550 19 132 0
-550 20 66 0
-550 25 100 0
-550 59 137 0
-550 65 100 0
-550 86 149 0
-550 91 100 0
-550 100 126 0
-550 144 149 0
-551 16 106 0
-551 16 154 0
-551 19 114 0
-551 19 152 0
-551 20 142 0
-551 37 158 0
-551 53 123 0
-551 83 164 0
-551 125 142 0
-552 7 147 0
-552 15 143 0
-552 54 138 0
-552 60 157 0
-552 83 143 0
-552 93 116 0
-553 17 111 0
-553 42 76 0
-553 50 115 0
-553 59 102 0
-553 101 151 0
-553 109 120 0
-554 12 30 0
-554 50 66 0
-554 63 140 0
-554 102 155 0
-554 103 149 0
-554 121 159 0
-555 21 113 0
-555 50 58 0
-555 74 141 0
-555 80 128 0
-555 113 137 0
-555 128 157 0
-555 151 152 0
-556 1 25 0
-556 2 137 0
-556 21 31 0
-556 21 49 0
-556 21 55 0
-556 24 104 0
-556 31 49 0
-556 40 117 0
-556 68 114 0
-557 30 58 0
-557 38 58 0
-557 56 137 0
-557 58 90 0
-557 58 101 0
-557 58 129 0
-557 58 141 0
-557 69 107 0
-557 87 124 0
-557 98 124 0
-557 100 125 0
-557 114 159 0
-558 60 109 0
-558 69 107 0
-558 90 101 0
-558 109 120 0
-558 114 159 0
-559 34 40 0
-559 34 105 0
-559 69 107 0
-559 114 159 0
-559 129 141 0
-560 21 31 0
-560 30 51 0
-560 38 51 0
-560 51 90 0
-560 51 101 0
-560 51 129 0
-560 51 141 0
-560 69 107 0
-560 87 115 0
-560 98 115 0
-560 114 159 0
-560 128 157 0
-561 2 121 0
-561 2 138 0
-561 11 80 0
-561 16 51 0
-561 22 58 0
-561 75 80 0
-561 79 146 0
-561 89 142 0
-562 3 121 0
-562 10 11 0
-562 16 51 0
-562 20 68 0
-562 20 89 0
-562 22 58 0
-562 49 81 0
-562 49 146 0
-563 5 53 0
-563 47 48 0
-563 72 151 0
-563 86 129 0
-563 87 105 0
-563 87 148 0
-563 98 105 0
-563 102 103 0
-564 1 61 0
-564 21 78 0
-564 52 112 0
-564 61 98 0
-564 76 109 0
-564 78 137 0
-564 79 100 0
-565 7 158 0
-565 16 39 0
-565 22 39 0
-565 60 109 0
-565 60 156 0
-565 109 124 0
-565 114 154 0
-565 124 156 0
-566 1 124 0
-566 8 98 0
-566 8 109 0
-566 14 162 0
-566 39 67 0
-566 56 98 0
-566 57 98 0
-566 77 98 0
-566 92 159 0
-566 101 110 0
-567 1 76 0
-567 2 76 0
-567 9 155 0
-567 47 73 0
-567 76 124 0
-567 93 131 0
-567 105 108 0
-567 108 138 0
-567 136 163 0
-568 30 105 0
-568 31 163 0
-568 79 127 0
-568 80 101 0
-568 95 150 0
-568 100 154 0
-569 3 164 0
-569 20 129 0
-569 38 60 0
-569 56 76 0
-569 91 128 0
-569 93 116 0
-570 4 60 0
-570 4 81 0
-570 26 95 0
-570 49 163 0
-570 50 163 0
-570 67 145 0
-570 72 102 0
-570 76 133 0
-570 115 163 0
-571 16 126 0
-571 22 126 0
-571 34 105 0
-571 34 115 0
-571 69 91 0
-571 92 105 0
-571 92 115 0
-571 97 162 0
-572 3 128 0
-572 21 23 0
-572 23 137 0
-572 34 163 0
-572 50 148 0
-572 84 139 0
-572 87 148 0
-573 1 61 0
-573 41 105 0
-573 50 61 0
-573 58 87 0
-573 61 109 0
-573 71 105 0
-573 89 105 0
-573 92 109 0
-573 100 130 0
-573 103 104 0
-573 104 116 0
-573 105 120 0
-573 109 115 0
-573 109 124 0
-573 109 148 0
-573 109 156 0
-574 1 61 0
-574 1 98 0
-574 14 34 0
-574 14 109 0
-574 15 140 0
-574 35 40 0
-574 72 82 0
-574 74 158 0
-575 1 60 0
-575 1 124 0
-575 50 124 0
-575 56 101 0
-575 60 98 0
-575 61 108 0
-575 100 155 0
-575 143 149 0
-576 1 98 0
-576 1 124 0
-576 8 156 0
-576 14 89 0
-576 14 135 0
-576 14 150 0
-576 14 156 0
-576 22 60 0
-576 35 60 0
-576 37 60 0
-576 38 60 0
-576 55 79 0
-576 55 130 0
-576 58 60 0
-576 60 75 0
-576 60 98 0
-576 60 124 0
-576 98 109 0
-577 1 61 0
-577 1 98 0
-577 6 105 0
-577 6 141 0
-577 9 43 0
-577 11 105 0
-577 13 36 0
-577 33 105 0
-577 40 105 0
-577 48 90 0
-577 76 95 0
-577 76 156 0
-578 8 98 0
-578 9 46 0
-578 14 156 0
-578 17 21 0
-578 17 137 0
-578 110 154 0
-578 128 154 0
-579 4 33 0
-579 37 100 0
-579 38 101 0
-579 95 150 0
-579 118 154 0
-579 127 155 0
-580 29 128 0
-580 30 129 0
-580 67 164 0
-580 71 108 0
-580 91 147 0
-580 93 116 0
-581 21 143 0
-581 63 91 0
-581 86 92 0
-581 87 144 0
-581 91 100 0
-581 137 143 0
-581 145 149 0
-582 41 60 0
-582 41 90 0
-582 45 145 0
-582 50 87 0
-582 50 148 0
-582 60 71 0
-582 60 89 0
-582 60 120 0
-582 92 163 0
-582 93 163 0
-582 103 141 0
-582 135 153 0
-583 3 28 0
-583 11 86 0
-583 13 86 0
-583 16 105 0
-583 25 105 0
-583 28 70 0
-583 29 105 0
-583 30 105 0
-583 34 87 0
-583 50 87 0
-583 50 115 0
-583 51 105 0
-583 68 105 0
-583 86 92 0
-583 86 116 0
-583 87 105 0
-583 92 144 0
-583 105 115 0
-584 1 115 0
-584 4 148 0
-584 17 46 0
-584 31 129 0
-584 50 105 0
-584 50 115 0
-584 67 128 0
-584 87 105 0
-585 25 120 0
-585 34 86 0
-585 50 87 0
-585 50 148 0
-585 73 134 0
-585 83 88 0
-585 86 109 0
-585 151 162 0
-586 1 148 0
-586 6 60 0
-586 11 60 0
-586 33 60 0
-586 34 61 0
-586 34 92 0
-586 34 115 0
-586 34 124 0
-586 34 148 0
-586 34 156 0
-586 40 60 0
-586 48 117 0
-586 50 148 0
-586 51 98 0
-586 70 128 0
-586 117 150 0
-587 1 60 0
-587 1 124 0
-587 45 134 0
-587 60 98 0
-587 60 109 0
-587 98 105 0
-587 110 125 0
-587 137 160 0
-588 6 50 0
-588 8 129 0
-588 11 50 0
-588 13 130 0
-588 14 61 0
-588 16 52 0
-588 33 50 0
-588 40 50 0
-588 60 124 0
-589 4 133 0
-589 5 38 0
-589 6 125 0
-589 28 30 0
-589 38 60 0
-589 44 101 0
-589 140 153 0
-590 10 50 0
-590 27 110 0
-590 30 84 0
-590 34 62 0
-590 41 81 0
-590 50 59 0
-590 50 128 0
-590 50 129 0
-590 50 150 0
-590 50 164 0
-590 84 144 0
-590 107 120 0
-591 8 56 0
-591 14 56 0
-591 51 148 0
-591 61 77 0
-591 63 97 0
-591 63 117 0
-591 89 142 0
-592 7 110 0
-592 10 11 0
-592 31 86 0
-592 31 144 0
-592 58 61 0
-592 65 148 0
-592 104 110 0
-593 1 24 0
-593 1 100 0
-593 1 101 0
-593 1 116 0
-593 1 127 0
-593 1 142 0
-593 6 138 0
-593 8 112 0
-593 38 112 0
-593 40 159 0
-593 54 109 0
-593 63 94 0
-594 30 105 0
-594 30 123 0
-594 36 88 0
-594 38 55 0
-594 41 157 0
-594 42 129 0
-594 108 136 0
-595 1 41 0
-595 1 71 0
-595 1 89 0
-595 1 120 0
-595 22 139 0
-595 70 135 0
-595 86 148 0
-595 101 144 0
-595 105 115 0
-596 21 85 0
-596 34 105 0
-596 43 82 0
-596 50 105 0
-596 50 115 0
-596 60 87 0
-596 63 157 0
-596 87 105 0
-597 1 98 0
-597 9 155 0
-597 14 142 0
-597 44 97 0
-597 46 64 0
-597 46 89 0
-597 61 98 0
-597 105 123 0
-598 1 61 0
-598 2 31 0
-598 2 61 0
-598 8 124 0
-598 13 126 0
-598 56 124 0
-598 57 124 0
-598 60 61 0
-598 60 98 0
-598 61 69 0
-598 61 82 0
-598 61 88 0
-598 61 90 0
-598 61 107 0
-598 61 137 0
-598 61 153 0
-598 77 124 0
-598 118 139 0
-599 29 120 0
-599 32 120 0
-599 38 58 0
-599 52 158 0
-599 58 116 0
-599 58 158 0
-600 4 33 0
-600 10 37 0
-600 10 115 0
-600 43 90 0
-600 59 115 0
-600 87 136 0
-600 115 128 0
-600 115 129 0
-600 115 150 0
-600 115 164 0
-600 128 153 0
-601 24 124 0
-601 29 142 0
-601 36 100 0
-601 45 141 0
-601 71 108 0
-601 98 133 0
-601 100 124 0
-601 101 124 0
-601 116 124 0
-601 124 127 0
-601 124 142 0
-602 30 51 0
-602 37 40 0
-602 40 57 0
-602 51 150 0
-602 51 162 0
-602 139 162 0
-603 21 148 0
-603 31 115 0
-603 32 115 0
-603 36 148 0
-603 39 135 0
-603 49 56 0
-603 49 148 0
-603 50 148 0
-603 52 147 0
-603 65 115 0
-603 87 105 0
-603 105 148 0
-603 114 148 0
-603 115 144 0
-603 134 148 0
-603 140 148 0
-603 141 148 0
-603 148 159 0
-604 5 60 0
-604 7 42 0
-604 10 86 0
-604 11 149 0
-604 50 87 0
-604 67 145 0
-604 87 148 0
-604 99 149 0
-605 12 132 0
-605 34 148 0
-605 43 114 0
-605 61 109 0
-605 61 156 0
-606 1 124 0
-606 12 53 0
-606 12 90 0
-606 34 148 0
-606 38 109 0
-606 43 107 0
-606 60 61 0
-606 61 109 0
-606 76 109 0
-607 5 156 0
-607 7 142 0
-607 34 148 0
-607 44 77 0
-607 61 102 0
-607 61 109 0
-607 75 128 0
-608 10 97 0
-608 34 148 0
-608 42 65 0
-608 47 148 0
-608 61 109 0
-608 68 100 0
-608 92 123 0
-609 30 34 0
-609 34 148 0
-609 34 163 0
-609 45 159 0
-609 50 115 0
-609 61 109 0
-609 96 111 0
-609 96 141 0
-609 105 148 0
-610 34 148 0
-610 45 69 0
-610 61 109 0
-610 92 148 0
-610 96 161 0
-611 1 124 0
-611 9 155 0
-611 11 60 0
-611 60 145 0
-611 60 156 0
-611 63 135 0
-611 98 156 0
-612 1 61 0
-612 14 98 0
-612 42 144 0
-612 61 98 0
-613 17 73 0
-613 80 111 0
-613 81 128 0
-613 98 156 0
-614 8 98 0
-614 8 109 0
-614 43 111 0
-614 56 109 0
-614 57 109 0
-614 77 109 0
-614 93 151 0
-614 103 138 0
-615 11 43 0
-615 34 63 0
-615 34 81 0
-615 74 95 0
-615 96 146 0
-615 106 161 0
-615 120 137 0
-616 7 125 0
-616 18 30 0
-616 18 144 0
-616 38 60 0
-616 62 148 0
-616 89 142 0
-616 110 118 0
-617 20 137 0
-617 41 83 0
-617 46 98 0
-617 49 121 0
-617 69 97 0
-617 77 118 0
-617 90 121 0
-618 10 93 0
-618 45 142 0
-618 47 144 0
-618 52 107 0
-618 76 87 0
-618 130 140 0
-619 8 102 0
-619 10 43 0
-619 70 88 0
-619 95 142 0
-619 98 163 0
-619 139 159 0
-620 2 146 0
-620 6 15 0
-620 7 114 0
-620 21 80 0
-620 65 147 0
-620 87 149 0
-620 141 146 0
-621 8 119 0
-621 10 11 0
-621 30 105 0
-621 38 119 0
-621 54 61 0
-621 63 147 0
-621 97 157 0
-622 12 121 0
-622 19 132 0
-622 21 40 0
-622 45 89 0
-622 93 151 0
-622 109 110 0
-622 109 138 0
-623 31 34 0
-623 32 34 0
-623 34 65 0
-623 34 144 0
-623 45 53 0
-623 48 81 0
-623 74 95 0
-623 87 144 0
-624 20 53 0
-624 72 143 0
-624 87 92 0
-624 100 138 0
-625 8 44 0
-625 50 148 0
-625 86 87 0
-625 87 148 0
-626 9 105 0
-626 13 110 0
-626 50 115 0
-626 67 145 0
-626 87 92 0
-626 89 105 0
-626 92 105 0
-627 1 61 0
-627 8 38 0
-627 8 98 0
-627 8 109 0
-627 9 125 0
-627 9 155 0
-627 14 90 0
-627 30 87 0
-627 38 98 0
-627 67 76 0
-628 14 38 0
-628 14 98 0
-628 14 124 0
-628 30 87 0
-628 38 98 0
-628 76 90 0
-628 83 100 0
-628 103 116 0
-628 122 124 0
-629 13 129 0
-629 30 87 0
-629 37 86 0
-629 38 98 0
-629 43 80 0
-629 74 139 0
-630 14 29 0
-630 20 45 0
-630 30 87 0
-630 38 98 0
-630 52 151 0
-630 101 135 0
-631 15 128 0
-631 30 86 0
-631 30 87 0
-631 38 98 0
-631 48 150 0
-631 66 115 0
-631 86 87 0
-631 86 115 0
-631 141 163 0
-632 64 109 0
-632 71 79 0
-632 76 90 0
-632 87 100 0
-632 93 157 0
-632 124 156 0
-633 1 34 0
-633 1 109 0
-633 7 21 0
-633 7 111 0
-633 71 79 0
-633 76 90 0
-633 90 163 0
-634 2 108 0
-634 14 38 0
-634 14 109 0
-634 61 76 0
-634 76 90 0
-634 86 159 0
-634 145 151 0
-635 1 109 0
-635 19 51 0
-635 57 128 0
-635 60 122 0
-635 76 124 0
-636 8 108 0
-636 14 60 0
-636 33 66 0
-636 76 111 0
-636 80 86 0
-636 90 111 0
-637 2 76 0
-637 9 56 0
-637 26 76 0
-637 27 73 0
-637 30 123 0
-637 55 117 0
-637 76 104 0
-637 76 155 0
-637 102 162 0
-638 27 110 0
-638 27 154 0
-638 29 101 0
-638 31 145 0
-638 32 101 0
-638 69 109 0
-638 69 143 0
-638 72 161 0
-638 128 137 0
-638 145 146 0
-639 9 56 0
-639 9 121 0
-639 17 114 0
-639 21 100 0
-639 34 114 0
-639 37 129 0
-639 57 129 0
-639 63 94 0
-639 73 132 0
-639 91 94 0
-640 5 38 0
-640 28 104 0
-640 31 145 0
-640 47 158 0
-640 49 163 0
-640 67 163 0
-640 72 94 0
-640 117 163 0
-640 131 163 0
-641 4 144 0
-641 14 20 0
-641 53 141 0
-641 53 163 0
-641 71 122 0
-641 86 105 0
-642 32 100 0
-642 34 50 0
-642 58 106 0
-642 66 105 0
-642 115 163 0
-643 4 49 0
-643 9 74 0
-643 14 107 0
-643 30 86 0
-643 34 86 0
-643 141 163 0
-643 148 163 0
-644 3 33 0
-644 34 50 0
-644 50 109 0
-644 53 97 0
-644 76 141 0
-644 97 137 0
-644 141 163 0
-645 3 33 0
-645 34 99 0
-645 92 115 0
-645 95 125 0
-645 98 128 0
-645 141 163 0
-646 4 33 0
-646 10 60 0
-646 14 39 0
-646 14 52 0
-646 14 61 0
-646 14 83 0
-646 14 109 0
-646 14 122 0
-646 14 151 0
-646 44 49 0
-646 76 122 0
-646 93 130 0
-646 122 163 0
-647 14 76 0
-647 45 125 0
-647 69 101 0
-647 76 122 0
-647 78 94 0
-647 90 128 0
-648 34 60 0
-648 60 109 0
-648 76 122 0
-648 88 128 0
-648 104 122 0
-648 132 141 0
-649 6 86 0
-649 8 90 0
-649 11 86 0
-649 14 38 0
-649 33 86 0
-649 40 86 0
-649 54 127 0
-649 63 129 0
-649 76 90 0
-649 103 135 0
-650 8 90 0
-650 24 86 0
-650 28 86 0
-650 38 76 0
-650 76 109 0
-650 98 156 0
-650 103 146 0
-651 1 109 0
-651 8 156 0
-651 14 22 0
-651 14 35 0
-651 14 37 0
-651 14 38 0
-651 14 58 0
-651 14 75 0
-651 14 98 0
-651 14 124 0
-651 38 109 0
-651 52 158 0
-651 123 164 0
-651 135 138 0
-652 7 38 0
-652 8 60 0
-652 26 122 0
-652 33 130 0
-652 40 81 0
-653 14 98 0
-653 35 76 0
-653 80 111 0
-653 101 121 0
-653 107 109 0
-653 108 138 0
-654 24 42 0
-654 24 164 0
-654 42 164 0
-654 82 118 0
-654 97 107 0
-654 128 153 0
-654 132 133 0
-654 132 147 0
-654 133 147 0
-654 142 158 0
-655 26 85 0
-655 39 73 0
-655 66 67 0
-655 67 86 0
-655 76 83 0
-655 101 106 0
-655 109 123 0
-656 5 34 0
-656 14 155 0
-656 15 163 0
-656 19 129 0
-656 72 126 0
-656 122 155 0
-656 131 160 0
-657 7 159 0
-657 10 162 0
-657 36 100 0
-657 44 59 0
-657 44 127 0
-657 59 127 0
-657 118 136 0
-657 118 161 0
-657 134 147 0
-657 136 161 0
-658 4 81 0
-658 20 53 0
-658 25 163 0
-658 34 159 0
-658 86 87 0
-658 129 146 0
-659 30 97 0
-659 66 131 0
-659 70 71 0
-659 105 144 0
-659 120 138 0
-660 5 127 0
-660 13 81 0
-660 16 86 0
-660 25 86 0
-660 29 86 0
-660 30 34 0
-660 30 86 0
-660 34 50 0
-660 51 86 0
-660 68 86 0
-660 86 87 0
-660 86 115 0
-660 92 144 0
-660 139 162 0
-661 14 55 0
-661 14 59 0
-661 30 163 0
-661 34 163 0
-661 48 121 0
-661 87 92 0
-661 141 144 0
-662 13 48 0
-662 14 41 0
-662 14 71 0
-662 14 89 0
-662 14 120 0
-662 30 86 0
-662 62 164 0
-662 101 110 0
-662 141 144 0
-662 141 163 0
-663 34 105 0
-663 66 117 0
-663 66 163 0
-663 90 161 0
-663 100 140 0
-663 105 109 0
-664 23 27 0
-664 43 157 0
-664 66 163 0
-664 86 163 0
-664 100 141 0
-664 114 129 0
-665 2 42 0
-665 15 86 0
-665 34 86 0
-665 66 76 0
-665 66 86 0
-665 66 163 0
-665 70 95 0
-665 71 108 0
-665 74 86 0
-665 86 126 0
-665 86 139 0
-665 86 148 0
-665 105 142 0
-666 7 103 0
-666 8 94 0
-666 8 124 0
-666 14 76 0
-666 14 90 0
-666 14 122 0
-666 60 109 0
-666 72 82 0
-666 80 158 0
-667 1 76 0
-667 2 76 0
-667 14 109 0
-667 16 106 0
-667 60 76 0
-667 60 156 0
-667 69 76 0
-667 69 142 0
-667 76 82 0
-667 76 88 0
-667 76 90 0
-667 76 107 0
-667 76 137 0
-667 76 153 0
-667 81 88 0
-667 109 122 0
-667 109 124 0
-668 2 80 0
-668 5 121 0
-668 6 156 0
-668 38 43 0
-668 44 51 0
-668 44 163 0
-668 95 163 0
-668 136 163 0
-668 162 163 0
-669 22 90 0
-669 56 90 0
-669 77 147 0
-670 9 99 0
-670 13 99 0
-670 14 138 0
-670 18 36 0
-670 31 128 0
-670 40 150 0
-670 80 145 0
-670 86 138 0
-671 9 20 0
-671 14 81 0
-671 56 100 0
-671 64 135 0
-671 64 145 0
-671 81 86 0
-671 116 120 0
-671 119 153 0
-672 16 141 0
-672 31 141 0
-672 65 118 0
-673 20 49 0
-673 30 45 0
-673 41 92 0
-673 42 58 0
-673 42 76 0
-673 76 93 0
-673 76 133 0
-673 76 158 0
-673 123 146 0
-674 10 114 0
-674 19 22 0
-674 21 163 0
-674 34 66 0
-674 34 86 0
-674 34 115 0
-674 36 163 0
-674 49 163 0
-674 50 163 0
-674 92 105 0
-674 105 163 0
-674 114 163 0
-674 134 163 0
-674 138 140 0
-674 140 163 0
-674 141 163 0
-674 159 163 0
-675 20 162 0
-675 27 144 0
-675 34 105 0
-675 48 97 0
-675 66 86 0
-675 73 134 0
-675 86 141 0
-675 86 163 0
-675 115 144 0
-676 37 63 0
-676 81 109 0
-676 93 108 0
-676 109 138 0
-677 1 8 0
-677 2 8 0
-677 8 60 0
-677 8 69 0
-677 8 82 0
-677 8 88 0
-677 8 90 0
-677 8 107 0
-677 8 137 0
-677 8 153 0
-677 12 98 0
-677 13 137 0
-677 14 76 0
-677 14 122 0
-677 14 163 0
-677 39 122 0
-677 52 122 0
-677 61 122 0
-677 83 122 0
-677 109 122 0
-677 122 151 0
-678 46 76 0
-678 50 51 0
-678 72 85 0
-678 76 109 0
-678 89 123 0
-678 104 111 0
-679 18 143 0
-679 41 51 0
-679 52 90 0
-679 58 120 0
-679 101 108 0
-679 120 137 0
-679 138 160 0
-680 8 122 0
-680 30 157 0
-680 56 122 0
-680 57 122 0
-680 77 122 0
-680 111 122 0
-680 113 160 0
-680 146 157 0
-681 1 138 0
-681 8 56 0
-681 46 124 0
-681 46 142 0
-681 56 108 0
-681 62 66 0
-681 66 135 0
-681 84 121 0
-681 103 122 0
-681 124 151 0
-682 12 53 0
-682 66 131 0
-682 73 115 0
-682 86 131 0
-682 95 150 0
-682 107 122 0
-683 13 93 0
-683 15 161 0
-683 29 44 0
-683 54 133 0
-683 58 158 0
-684 3 140 0
-684 14 137 0
-684 28 92 0
-684 29 67 0
-684 29 138 0
-684 32 138 0
-684 77 143 0
-685 17 65 0
-685 21 86 0
-685 37 81 0
-685 37 155 0
-685 55 156 0
-685 57 81 0
-685 79 88 0
-686 37 42 0
-686 51 162 0
-686 62 136 0
-686 83 132 0
-686 95 135 0
-687 14 26 0
-687 26 122 0
-687 66 159 0
-687 72 124 0
-687 93 116 0
-687 96 111 0
-688 31 66 0
-688 32 66 0
-688 38 125 0
-688 53 66 0
-688 65 66 0
-688 66 144 0
-688 85 152 0
-688 121 125 0
-689 4 129 0
-689 6 58 0
-689 17 119 0
-689 21 40 0
-689 40 51 0
-689 81 85 0
-689 139 141 0
-690 1 58 0
-690 5 11 0
-690 34 163 0
-690 53 117 0
-690 73 160 0
-690 149 163 0
-691 10 43 0
-691 30 141 0
-691 30 144 0
-691 76 161 0
-691 83 97 0
-691 86 141 0
-691 139 162 0
-691 148 155 0
-692 15 66 0
-692 21 135 0
-692 21 144 0
-692 34 66 0
-692 36 144 0
-692 49 144 0
-692 50 144 0
-692 66 74 0
-692 66 86 0
-692 66 126 0
-692 66 139 0
-692 66 148 0
-692 76 86 0
-692 86 163 0
-692 87 96 0
-692 105 144 0
-692 114 144 0
-692 134 144 0
-692 140 144 0
-692 141 144 0
-692 144 159 0
-693 4 95 0
-693 29 110 0
-693 34 81 0
-693 34 138 0
-694 14 90 0
-694 43 96 0
-694 63 88 0
-694 76 90 0
-694 79 90 0
-694 81 150 0
-694 90 96 0
-694 90 106 0
-694 90 155 0
-695 8 76 0
-695 11 103 0
-695 14 38 0
-695 30 41 0
-695 30 71 0
-695 30 89 0
-695 30 120 0
-695 60 111 0
-695 64 124 0
-695 66 76 0
-695 76 90 0
-695 76 122 0
-695 76 144 0
-696 27 73 0
-696 41 92 0
-696 65 160 0
-696 81 149 0
-697 6 156 0
-697 46 138 0
-697 72 94 0
-697 77 85 0
-698 6 38 0
-698 8 163 0
-698 11 38 0
-698 30 86 0
-698 33 38 0
-698 38 40 0
-698 48 89 0
-698 53 105 0
-698 66 163 0
-698 99 115 0
-698 122 163 0
-698 141 163 0
-698 144 163 0
-699 3 141 0
-699 12 45 0
-699 12 141 0
-699 19 141 0
-699 67 141 0
-699 86 141 0
-699 110 140 0
-699 116 138 0
-699 141 163 0
-700 8 76 0
-700 14 124 0
-700 36 112 0
-700 51 115 0
-700 58 124 0
-700 63 129 0
-700 86 124 0
-700 120 137 0
-701 14 115 0
-701 21 40 0
-701 51 115 0
-701 58 124 0
-701 84 153 0
-701 86 115 0
-701 101 110 0
-701 144 163 0
-702 26 100 0
-702 45 112 0
-702 75 133 0
-702 81 98 0
-702 83 133 0
-702 89 100 0
-702 90 122 0
-702 98 138 0
-703 9 108 0
-703 18 143 0
-703 46 108 0
-703 130 136 0
-704 1 61 0
-704 7 96 0
-704 14 122 0
-704 44 148 0
-704 45 110 0
-705 2 108 0
-705 56 90 0
-705 58 122 0
-706 30 146 0
-706 37 111 0
-706 39 101 0
-706 66 146 0
-706 75 98 0
-706 75 156 0
-706 78 101 0
-706 81 95 0
-706 129 135 0
-707 13 101 0
-707 23 129 0
-707 29 53 0
-707 38 121 0
-707 68 87 0
-707 68 92 0
-707 93 138 0
-707 121 122 0
-707 126 129 0
-708 4 49 0
-708 31 141 0
-708 51 66 0
-709 12 97 0
-709 42 61 0
-709 43 63 0
-709 50 148 0
-709 66 86 0
-710 4 145 0
-710 4 149 0
-710 17 119 0
-710 70 133 0
-711 11 128 0
-711 15 136 0
-711 43 84 0
-711 66 141 0
-711 68 136 0
-711 81 87 0
-711 87 138 0
-711 128 131 0
-712 53 89 0
-712 60 96 0
-712 89 111 0
-712 90 123 0
-712 93 162 0
-712 97 118 0
-712 116 150 0
-713 5 141 0
-713 7 147 0
-713 11 53 0
-713 11 111 0
-713 12 105 0
-713 95 158 0
-713 116 150 0
-714 7 58 0
-714 43 108 0
-714 56 95 0
-714 61 90 0
-714 77 118 0
-715 2 7 0
-715 2 108 0
-715 7 49 0
-715 8 38 0
-715 24 105 0
-715 25 119 0
-715 25 147 0
-715 58 99 0
-715 62 163 0
-716 17 33 0
-716 36 65 0
-716 38 58 0
-716 42 87 0
-716 58 99 0
-716 64 97 0
-716 143 144 0
-717 8 107 0
-717 12 105 0
-717 13 73 0
-717 55 105 0
-717 89 156 0
-717 90 151 0
-717 98 158 0
-717 151 157 0
-718 3 95 0
-718 5 146 0
-718 13 40 0
-718 31 146 0
-718 43 145 0
-718 43 146 0
-718 45 146 0
-718 56 146 0
-718 95 116 0
-718 113 154 0
-718 123 146 0
-719 5 121 0
-719 9 45 0
-719 31 121 0
-719 43 121 0
-719 45 121 0
-719 56 121 0
-719 79 93 0
-719 91 152 0
-719 93 150 0
-719 120 135 0
-719 121 123 0
-720 11 92 0
-720 28 60 0
-720 60 96 0
-720 72 135 0
-720 74 125 0
-720 74 141 0
-720 87 162 0
-720 144 159 0
-721 7 99 0
-721 8 17 0
-721 30 51 0
-721 44 98 0
-721 51 64 0
-721 71 143 0
-721 77 153 0
-722 4 45 0
-722 31 93 0
-722 51 97 0
-722 65 147 0
-722 141 148 0
-723 5 103 0
-723 7 96 0
-723 11 96 0
-723 38 43 0
-723 39 111 0
-723 51 96 0
-723 52 111 0
-723 56 58 0
-723 58 96 0
-723 61 111 0
-723 83 111 0
-723 89 96 0
-723 96 97 0
-723 96 107 0
-723 96 159 0
-723 109 111 0
-723 111 151 0
-724 5 107 0
-724 29 64 0
-724 35 73 0
-724 38 60 0
-724 39 73 0
-724 44 51 0
-724 73 77 0
-724 73 154 0
-724 96 107 0
-724 100 163 0
-725 8 38 0
-725 16 102 0
-725 30 143 0
-725 96 111 0
-725 105 129 0
-725 114 125 0
-726 21 123 0
-726 47 159 0
-726 53 70 0
-726 56 121 0
-726 101 158 0
-727 7 116 0
-727 11 116 0
-727 41 77 0
-727 51 116 0
-727 58 116 0
-727 63 66 0
-727 72 114 0
-727 77 151 0
-727 89 116 0
-727 97 116 0
-727 107 116 0
-727 116 159 0
-728 9 13 0
-728 54 147 0
-728 60 157 0
-728 107 160 0
-728 127 148 0
-729 61 164 0
-729 62 118 0
-729 85 159 0
-729 105 125 0
-729 135 145 0
-730 6 65 0
-730 7 150 0
-730 11 150 0
-730 51 150 0
-730 58 150 0
-730 65 74 0
-730 69 73 0
-730 89 150 0
-730 97 150 0
-730 107 150 0
-730 110 122 0
-730 150 159 0
-731 2 22 0
-731 10 14 0
-731 11 116 0
-731 11 119 0
-731 14 98 0
-731 41 90 0
-731 47 125 0
-731 95 116 0
-731 120 150 0
-732 5 137 0
-732 31 146 0
-732 102 107 0
-732 111 130 0
-732 129 162 0
-733 12 53 0
-733 17 38 0
-733 22 47 0
-733 30 144 0
-733 60 101 0
-733 69 157 0
-734 12 159 0
-734 25 72 0
-734 30 105 0
-734 37 99 0
-734 42 58 0
-734 65 72 0
-734 72 91 0
-734 72 126 0
-734 76 128 0
-734 123 159 0
-735 7 12 0
-735 11 12 0
-735 12 51 0
-735 12 58 0
-735 12 89 0
-735 12 97 0
-735 12 107 0
-735 12 159 0
-735 15 53 0
-735 30 45 0
-735 31 51 0
-735 34 53 0
-735 48 123 0
-735 53 74 0
-735 53 126 0
-735 53 139 0
-735 53 148 0
-736 11 117 0
-736 14 122 0
-736 32 117 0
-736 43 122 0
-736 46 56 0
-736 63 64 0
-736 127 141 0
-736 136 145 0
-737 5 38 0
-737 26 92 0
-737 32 72 0
-737 35 114 0
-737 43 157 0
-738 1 96 0
-738 1 109 0
-738 6 136 0
-738 14 58 0
-738 29 123 0
-738 49 63 0
-738 49 81 0
-739 22 44 0
-739 49 62 0
-739 49 135 0
-739 93 138 0
-739 106 107 0
-740 38 43 0
-740 43 142 0
-740 57 105 0
-740 73 98 0
-740 96 150 0
-740 106 113 0
-740 106 139 0
-740 106 164 0
-740 119 139 0
-740 139 164 0
-741 16 123 0
-741 21 31 0
-741 47 127 0
-741 53 137 0
-741 81 142 0
-741 82 94 0
-742 38 71 0
-742 52 81 0
-742 89 126 0
-742 89 158 0
-743 11 89 0
-743 11 142 0
-743 39 91 0
-743 40 121 0
-743 93 135 0
-743 101 129 0
-743 120 162 0
-744 10 89 0
-744 11 89 0
-744 13 95 0
-744 40 158 0
-744 101 129 0
-744 120 146 0
-744 126 154 0
-745 11 39 0
-745 11 162 0
-745 30 33 0
-745 138 139 0
-746 5 22 0
-746 10 138 0
-746 21 111 0
-746 27 134 0
-746 56 137 0
-746 102 164 0
-747 10 45 0
-747 12 116 0
-747 18 52 0
-747 19 52 0
-747 19 127 0
-747 19 152 0
-747 30 45 0
-747 32 60 0
-747 52 127 0
-747 72 87 0
-748 2 13 0
-748 2 54 0
-748 16 42 0
-748 19 159 0
-748 81 95 0
-749 2 110 0
-749 2 138 0
-749 5 37 0
-749 12 50 0
-749 34 50 0
-749 41 133 0
-749 51 86 0
-750 25 69 0
-750 30 123 0
-750 45 125 0
-750 57 73 0
-750 131 156 0
-751 9 133 0
-751 31 149 0
-751 45 66 0
-751 57 104 0
-751 66 86 0
-751 89 104 0
-751 90 164 0
-751 99 110 0
-752 7 90 0
-752 11 163 0
-752 33 54 0
-752 73 107 0
-752 84 113 0
-752 101 122 0
-752 107 111 0
-752 127 163 0
-753 4 6 0
-753 5 58 0
-753 5 107 0
-753 14 101 0
-753 31 107 0
-753 43 107 0
-753 45 107 0
-753 56 58 0
-753 56 107 0
-753 87 161 0
-753 107 123 0
-753 141 161 0
-754 2 56 0
-754 2 73 0
-754 5 58 0
-754 5 107 0
-754 28 53 0
-754 31 58 0
-754 43 58 0
-754 45 58 0
-754 56 58 0
-754 56 107 0
-754 58 123 0
-754 63 102 0
-754 103 104 0
-755 2 111 0
-755 5 99 0
-755 5 104 0
-755 8 34 0
-755 13 81 0
-755 32 125 0
-755 56 107 0
-755 96 107 0
-755 96 111 0
-756 3 53 0
-756 28 137 0
-756 29 44 0
-756 36 86 0
-756 53 86 0
-756 75 103 0
-756 80 103 0
-757 2 123 0
-757 5 89 0
-757 8 44 0
-757 13 40 0
-757 16 135 0
-757 31 89 0
-757 43 89 0
-757 45 89 0
-757 56 89 0
-757 89 123 0
-757 95 150 0
-758 5 11 0
-758 5 49 0
-758 11 31 0
-758 11 43 0
-758 11 45 0
-758 11 56 0
-758 11 123 0
-758 13 22 0
-758 42 144 0
-758 93 116 0
-758 120 135 0
-759 14 111 0
-759 14 153 0
-759 20 48 0
-759 21 55 0
-759 37 42 0
-759 48 68 0
-759 79 111 0
-760 12 53 0
-760 12 159 0
-760 31 159 0
-760 49 53 0
-760 57 157 0
-760 64 123 0
-760 109 144 0
-760 117 123 0
-760 135 138 0
-761 5 51 0
-761 31 49 0
-761 31 51 0
-761 31 159 0
-761 43 51 0
-761 45 51 0
-761 47 110 0
-761 48 117 0
-761 49 72 0
-761 51 56 0
-761 51 123 0
-761 55 111 0
-761 123 159 0
-762 5 159 0
-762 31 51 0
-762 31 159 0
-762 41 108 0
-762 43 159 0
-762 45 159 0
-762 51 123 0
-762 56 159 0
-762 86 129 0
-762 90 132 0
-762 98 132 0
-762 123 159 0
-763 53 159 0
-763 62 71 0
-763 66 129 0
-763 72 159 0
-763 76 89 0
-763 76 164 0
-763 97 141 0
-763 112 152 0
-764 5 46 0
-764 24 45 0
-764 43 151 0
-764 45 100 0
-764 45 101 0
-764 45 116 0
-764 45 127 0
-764 45 142 0
-764 55 115 0
-764 55 121 0
-764 56 103 0
-764 58 151 0
-765 2 56 0
-765 22 56 0
-765 33 104 0
-765 33 127 0
-765 35 56 0
-765 37 56 0
-765 38 56 0
-765 41 123 0
-765 42 45 0
-765 45 93 0
-765 45 133 0
-765 45 158 0
-765 56 58 0
-765 56 75 0
-765 56 98 0
-765 56 124 0
-765 58 107 0
-765 71 123 0
-765 89 123 0
-765 101 158 0
-765 104 136 0
-765 120 123 0
-766 9 86 0
-766 14 138 0
-766 28 45 0
-766 44 160 0
-766 45 121 0
-766 45 132 0
-766 45 145 0
-766 103 153 0
-766 108 162 0
-767 11 158 0
-767 25 50 0
-767 26 99 0
-767 26 164 0
-767 57 61 0
-767 116 120 0
-768 3 119 0
-768 20 151 0
-768 27 39 0
-768 55 153 0
-768 89 142 0
-768 100 122 0
-769 9 61 0
-769 9 116 0
-769 13 40 0
-769 13 93 0
-769 54 133 0
-769 89 142 0
-769 116 157 0
-769 121 129 0
-770 9 13 0
-770 64 84 0
-770 71 122 0
-770 100 122 0
-770 108 122 0
-770 120 150 0
-771 4 66 0
-771 33 66 0
-771 40 116 0
-771 66 128 0
-771 99 112 0
-771 135 145 0
-772 10 11 0
-772 62 136 0
-772 95 135 0
-772 101 146 0
-772 120 135 0
-772 125 150 0
-772 145 148 0
-772 145 150 0
-773 10 11 0
-773 18 79 0
-773 28 36 0
-773 66 128 0
-773 74 80 0
-773 94 126 0
-774 1 35 0
-774 32 148 0
-774 40 150 0
-774 64 131 0
-774 89 162 0
-774 127 131 0
-775 4 158 0
-775 9 43 0
-775 14 145 0
-775 36 48 0
-775 42 85 0
-775 43 55 0
-775 43 146 0
-775 43 161 0
-775 81 86 0
-776 5 6 0
-776 5 11 0
-776 5 33 0
-776 5 40 0
-776 16 31 0
-776 25 31 0
-776 29 31 0
-776 30 31 0
-776 31 49 0
-776 31 51 0
-776 31 68 0
-776 31 87 0
-776 31 115 0
-776 43 44 0
-776 43 95 0
-776 43 136 0
-776 43 162 0
-776 51 159 0
-776 71 117 0
-776 71 164 0
-776 117 133 0
-776 129 162 0
-777 12 51 0
-777 12 123 0
-777 21 31 0
-777 28 135 0
-777 31 36 0
-777 31 49 0
-777 31 50 0
-777 31 105 0
-777 31 114 0
-777 31 134 0
-777 31 140 0
-777 31 141 0
-777 31 159 0
-777 48 64 0
-777 49 51 0
-777 97 118 0
-777 117 164 0
-778 10 43 0
-778 28 124 0
-778 28 146 0
-778 31 48 0
-778 43 59 0
-778 43 128 0
-778 43 129 0
-778 43 150 0
-778 43 164 0
-778 45 74 0
-778 51 74 0
-778 123 149 0
-779 2 151 0
-779 7 43 0
-779 7 72 0
-779 36 65 0
-779 80 157 0
-779 90 111 0
-779 99 108 0
-780 7 104 0
-780 41 97 0
-780 43 108 0
-780 50 163 0
-780 71 97 0
-780 81 110 0
-780 89 97 0
-780 97 120 0
-781 5 96 0
-781 5 157 0
-781 36 43 0
-781 44 51 0
-781 44 163 0
-781 49 113 0
-781 51 95 0
-781 51 136 0
-781 51 162 0
-781 80 131 0
-781 122 134 0
-781 131 134 0
-782 59 102 0
-782 80 81 0
-782 100 158 0
-782 104 157 0
-782 139 154 0
-782 140 156 0
-783 7 17 0
-783 7 99 0
-783 10 159 0
-783 43 80 0
-783 43 104 0
-783 46 108 0
-783 59 159 0
-783 68 136 0
-783 105 149 0
-783 128 159 0
-783 129 159 0
-783 150 159 0
-783 159 164 0
-784 2 61 0
-784 7 58 0
-784 9 11 0
-784 11 55 0
-784 11 146 0
-784 11 161 0
-784 42 114 0
-784 58 112 0
-784 58 147 0
-784 58 157 0
-784 62 159 0
-784 63 149 0
-784 135 159 0
-784 140 159 0
-785 9 116 0
-785 11 42 0
-785 11 93 0
-785 11 133 0
-785 11 158 0
-785 13 93 0
-785 13 104 0
-785 13 117 0
-785 65 115 0
-785 78 91 0
-786 13 93 0
-786 42 89 0
-786 54 133 0
-786 79 124 0
-786 81 95 0
-786 89 93 0
-786 89 133 0
-786 89 158 0
-786 142 146 0
-787 9 93 0
-787 9 142 0
-787 24 86 0
-787 53 114 0
-787 89 142 0
-787 92 161 0
-787 132 153 0
-788 6 152 0
-788 11 41 0
-788 11 71 0
-788 11 89 0
-788 11 93 0
-788 11 120 0
-788 13 93 0
-788 13 116 0
-788 82 114 0
-788 91 152 0
-788 93 104 0
-788 93 117 0
-788 120 142 0
-789 9 10 0
-789 55 59 0
-789 68 102 0
-789 115 156 0
-789 146 150 0
-789 161 164 0
-790 24 28 0
-790 47 75 0
-790 92 124 0
-790 116 121 0
-790 127 132 0
-790 142 145 0
-791 6 89 0
-791 10 40 0
-791 11 89 0
-791 33 89 0
-791 40 89 0
-791 41 113 0
-791 69 134 0
-791 89 95 0
-791 95 104 0
-791 95 117 0
-791 95 135 0
-791 113 154 0
-791 135 150 0
-792 10 11 0
-792 10 145 0
-792 14 59 0
-792 36 161 0
-792 69 111 0
-792 95 145 0
-792 132 156 0
-793 3 115 0
-793 10 121 0
-793 11 44 0
-793 11 95 0
-793 11 136 0
-793 11 162 0
-793 62 136 0
-793 93 138 0
-793 95 135 0
-794 23 154 0
-794 44 89 0
-794 77 124 0
-794 89 95 0
-794 89 136 0
-794 89 162 0
-794 95 135 0
-794 104 135 0
-794 117 135 0
-794 145 150 0
-795 7 9 0
-795 7 55 0
-795 7 146 0
-795 7 161 0
-795 10 11 0
-795 10 145 0
-795 11 59 0
-795 11 128 0
-795 11 129 0
-795 11 150 0
-795 11 164 0
-795 32 67 0
-795 44 88 0
-795 129 157 0
-795 135 162 0
-796 13 107 0
-796 28 89 0
-796 44 69 0
-796 46 110 0
-796 49 148 0
-796 51 84 0
-796 51 97 0
-796 51 118 0
-796 51 125 0
-796 54 107 0
-796 88 107 0
-796 89 121 0
-796 89 132 0
-796 89 145 0
-797 4 149 0
-797 20 45 0
-797 24 107 0
-797 45 117 0
-797 46 60 0
-797 64 97 0
-797 75 133 0
-797 97 143 0
-797 100 107 0
-797 101 107 0
-797 107 116 0
-797 107 127 0
-797 107 142 0
-798 20 138 0
-798 24 47 0
-798 52 91 0
-798 88 92 0
-798 117 125 0
-798 128 162 0
-799 2 152 0
-799 12 123 0
-799 20 26 0
-799 26 82 0
-799 42 58 0
-799 42 76 0
-799 45 153 0
-799 58 93 0
-799 58 133 0
-799 58 158 0
-799 66 82 0
-799 123 125 0
-800 1 76 0
-800 4 45 0
-800 6 7 0
-800 7 11 0
-800 7 33 0
-800 7 40 0
-800 63 138 0
-800 97 117 0
-801 4 64 0
-801 20 125 0
-801 45 97 0
-801 49 74 0
-801 53 141 0
-801 73 97 0
-801 77 153 0
-802 5 107 0
-802 46 111 0
-802 51 98 0
-802 53 149 0
-802 58 103 0
-802 96 107 0
-802 121 137 0
-803 25 53 0
-803 38 103 0
-803 46 111 0
-803 53 149 0
-803 58 99 0
-803 72 126 0
-803 99 104 0
-803 104 108 0
-803 108 117 0
-804 9 142 0
-804 20 151 0
-804 27 39 0
-804 39 67 0
-804 44 77 0
-804 46 111 0
-804 53 149 0
-804 89 142 0
-805 10 11 0
-805 10 145 0
-805 42 65 0
-805 46 111 0
-805 53 149 0
-805 74 80 0
-805 94 126 0
-805 126 155 0
-806 4 104 0
-806 4 117 0
-806 30 48 0
-806 35 111 0
-806 39 73 0
-806 46 111 0
-806 51 64 0
-806 53 149 0
-806 64 117 0
-807 12 159 0
-807 21 146 0
-807 46 111 0
-807 48 51 0
-807 53 149 0
-807 58 87 0
-807 123 159 0
-808 2 56 0
-808 2 157 0
-808 90 108 0
-808 96 103 0
-808 104 151 0
-808 105 149 0
-808 115 137 0
-808 117 151 0
-809 2 5 0
-809 5 96 0
-809 7 124 0
-809 43 99 0
-809 56 107 0
-809 59 149 0
-810 7 108 0
-810 53 152 0
-810 80 157 0
-810 90 151 0
-810 99 108 0
-810 149 150 0
-811 1 151 0
-811 33 53 0
-811 43 80 0
-811 53 129 0
-811 54 66 0
-811 60 104 0
-811 80 99 0
-811 104 157 0
-811 138 146 0
-812 5 90 0
-812 7 99 0
-812 43 99 0
-812 46 90 0
-812 76 107 0
-812 80 99 0
-812 83 103 0
-812 90 96 0
-812 107 146 0
-812 108 122 0
-813 8 138 0
-813 9 81 0
-813 10 128 0
-813 13 129 0
-813 29 54 0
-813 85 148 0
-814 44 160 0
-814 46 80 0
-814 47 72 0
-814 62 122 0
-814 81 146 0
-814 108 162 0
-815 7 121 0
-815 13 142 0
-815 16 77 0
-815 65 142 0
-815 81 121 0
-815 97 156 0
-815 104 146 0
-815 117 146 0
-816 8 108 0
-816 9 13 0
-816 9 93 0
-816 9 142 0
-816 13 93 0
-816 40 91 0
-816 54 133 0
-816 116 158 0
-816 122 157 0
-817 11 94 0
-817 12 93 0
-817 20 93 0
-817 74 93 0
-817 80 93 0
-817 89 142 0
-817 93 96 0
-817 93 116 0
-817 93 121 0
-817 93 146 0
-817 93 150 0
-817 93 151 0
-817 115 120 0
-817 116 120 0
-818 9 162 0
-818 11 120 0
-818 44 55 0
-818 45 56 0
-818 73 77 0
-818 103 123 0
-818 120 142 0
-819 5 48 0
-819 10 40 0
-819 28 42 0
-819 31 43 0
-819 40 89 0
-819 65 72 0
-819 145 158 0
-820 10 11 0
-820 12 95 0
-820 20 95 0
-820 27 89 0
-820 40 124 0
-820 40 150 0
-820 74 95 0
-820 80 95 0
-820 95 96 0
-820 95 116 0
-820 95 121 0
-820 95 146 0
-820 95 150 0
-820 95 151 0
-821 7 92 0
-821 10 77 0
-821 10 135 0
-821 22 65 0
-821 97 146 0
-821 104 121 0
-821 117 121 0
-821 138 146 0
-822 4 158 0
-822 20 149 0
-822 42 85 0
-822 54 66 0
-822 73 102 0
-822 121 138 0
-823 37 62 0
-823 61 160 0
-823 81 144 0
-823 100 142 0
-823 101 135 0
-823 138 145 0
-824 4 66 0
-824 12 141 0
-824 15 48 0
-824 20 64 0
-824 45 64 0
-824 64 97 0
-824 121 159 0
-824 123 141 0
-824 141 149 0
-824 159 163 0
-825 20 45 0
-825 20 64 0
-825 50 74 0
-825 62 122 0
-825 71 111 0
-825 81 121 0
-825 101 111 0
-825 105 117 0
-825 117 125 0
-826 4 64 0
-826 4 97 0
-826 20 125 0
-826 46 116 0
-826 74 141 0
-826 111 113 0
-827 12 123 0
-827 24 46 0
-827 31 159 0
-827 45 64 0
-827 49 123 0
-827 97 115 0
-828 4 141 0
-828 12 48 0
-828 21 124 0
-828 31 49 0
-828 46 60 0
-828 49 125 0
-828 74 104 0
-828 74 117 0
-829 49 89 0
-829 56 96 0
-829 58 96 0
-829 96 103 0
-829 96 151 0
-830 2 104 0
-830 2 108 0
-830 5 104 0
-830 33 127 0
-830 46 107 0
-830 55 148 0
-830 96 151 0
-830 103 151 0
-830 104 152 0
-830 123 127 0
-830 125 142 0
-831 48 150 0
-831 74 131 0
-831 96 124 0
-832 13 90 0
-832 37 130 0
-832 80 138 0
-832 104 157 0
-832 129 148 0
-833 7 104 0
-833 7 131 0
-833 12 108 0
-833 20 108 0
-833 74 108 0
-833 80 108 0
-833 92 110 0
-833 96 108 0
-833 100 120 0
-833 104 112 0
-833 104 147 0
-833 104 157 0
-833 108 116 0
-833 108 121 0
-833 108 146 0
-833 108 150 0
-833 108 151 0
-834 2 7 0
-834 3 31 0
-834 3 48 0
-834 3 51 0
-834 3 74 0
-834 9 41 0
-834 71 82 0
-834 89 107 0
-834 103 138 0
-834 107 109 0
-835 13 116 0
-835 13 146 0
-835 24 152 0
-835 57 118 0
-835 59 132 0
-835 88 118 0
-836 4 120 0
-836 8 51 0
-836 9 116 0
-836 9 120 0
-836 10 120 0
-836 11 89 0
-836 11 93 0
-836 11 95 0
-836 43 64 0
-836 48 120 0
-836 103 120 0
-836 108 120 0
-836 120 142 0
-836 120 145 0
-836 120 158 0
-836 120 162 0
-836 143 162 0
-837 4 40 0
-837 9 40 0
-837 10 40 0
-837 11 89 0
-837 17 158 0
-837 40 48 0
-837 40 103 0
-837 40 108 0
-837 40 142 0
-837 40 145 0
-837 40 158 0
-837 40 162 0
-837 45 99 0
-837 58 144 0
-837 89 93 0
-837 89 95 0
-837 145 150 0
-838 8 148 0
-838 10 162 0
-838 12 162 0
-838 20 162 0
-838 31 157 0
-838 41 54 0
-838 74 162 0
-838 80 162 0
-838 89 93 0
-838 89 135 0
-838 93 101 0
-838 93 160 0
-838 96 162 0
-838 99 123 0
-838 116 162 0
-838 121 162 0
-838 146 162 0
-838 150 162 0
-838 151 162 0
-839 24 161 0
-839 32 147 0
-839 59 113 0
-839 121 135 0
-839 135 150 0
-839 140 147 0
-840 6 145 0
-840 11 159 0
-840 33 134 0
-840 34 159 0
-840 48 81 0
-840 49 97 0
-840 56 79 0
-840 58 79 0
-840 79 103 0
-840 79 151 0
-841 4 12 0
-841 4 20 0
-841 4 74 0
-841 4 80 0
-841 4 96 0
-841 4 116 0
-841 4 121 0
-841 4 146 0
-841 4 150 0
-841 4 151 0
-841 26 97 0
-841 40 128 0
-841 63 156 0
-841 84 117 0
-841 97 117 0
-841 117 118 0
-841 117 125 0
-842 20 81 0
-842 29 70 0
-842 61 101 0
-842 117 125 0
-842 135 141 0
-843 1 97 0
-843 4 64 0
-843 4 81 0
-843 9 64 0
-843 10 64 0
-843 13 14 0
-843 22 148 0
-843 34 95 0
-843 34 115 0
-843 48 64 0
-843 64 103 0
-843 64 108 0
-843 64 117 0
-843 64 142 0
-843 64 145 0
-843 64 158 0
-843 64 162 0
-843 92 105 0
-843 95 115 0
-844 12 115 0
-844 26 151 0
-844 103 116 0
-845 4 48 0
-845 6 104 0
-845 11 104 0
-845 12 51 0
-845 12 123 0
-845 31 51 0
-845 33 104 0
-845 40 104 0
-845 48 123 0
-845 53 74 0
-845 64 74 0
-845 81 86 0
-845 85 91 0
-846 2 11 0
-846 12 31 0
-846 12 48 0
-846 12 51 0
-846 12 74 0
-847 4 46 0
-847 7 111 0
-847 9 46 0
-847 10 46 0
-847 11 111 0
-847 34 55 0
-847 34 69 0
-847 39 96 0
-847 46 48 0
-847 46 96 0
-847 46 103 0
-847 46 108 0
-847 46 142 0
-847 46 145 0
-847 46 158 0
-847 46 162 0
-847 51 111 0
-847 52 96 0
-847 58 111 0
-847 61 96 0
-847 73 117 0
-847 83 96 0
-847 89 111 0
-847 96 109 0
-847 96 151 0
-847 97 111 0
-847 103 151 0
-847 107 111 0
-847 111 159 0
-848 6 74 0
-848 11 74 0
-848 12 19 0
-848 19 123 0
-848 19 149 0
-848 23 159 0
-848 32 47 0
-848 33 74 0
-848 40 74 0
-848 58 103 0
-848 111 138 0
-849 1 96 0
-849 2 96 0
-849 46 111 0
-849 56 151 0
-849 60 96 0
-849 69 96 0
-849 78 134 0
-849 80 104 0
-849 80 119 0
-849 82 96 0
-849 88 96 0
-849 90 96 0
-849 96 107 0
-849 96 137 0
-849 96 153 0
-849 103 104 0
-849 106 134 0
-849 107 151 0
-849 134 152 0
-850 1 61 0
-850 5 96 0
-850 7 80 0
-850 7 99 0
-850 43 58 0
-850 44 107 0
-850 80 112 0
-850 80 147 0
-850 80 157 0
-850 96 152 0
-851 7 104 0
-851 9 135 0
-851 34 41 0
-851 43 104 0
-851 86 87 0
-851 89 156 0
-851 100 111 0
-852 13 121 0
-852 54 121 0
-852 80 108 0
-852 108 157 0
-853 6 20 0
-853 11 20 0
-853 12 63 0
-853 12 81 0
-853 14 101 0
-853 20 33 0
-853 20 40 0
-853 61 140 0
-853 78 140 0
-853 106 140 0
-853 140 152 0
-853 150 156 0
-854 9 13 0
-854 13 146 0
-854 41 150 0
-854 54 146 0
-854 55 111 0
-854 57 155 0
-854 71 150 0
-854 89 150 0
-854 120 150 0
-855 4 93 0
-855 9 93 0
-855 10 93 0
-855 11 155 0
-855 12 144 0
-855 26 62 0
-855 48 93 0
-855 74 156 0
-855 85 124 0
-855 93 103 0
-855 93 108 0
-855 93 116 0
-855 93 142 0
-855 93 145 0
-855 93 158 0
-855 93 162 0
-856 4 95 0
-856 8 96 0
-856 9 95 0
-856 10 95 0
-856 48 95 0
-856 54 131 0
-856 67 89 0
-856 92 151 0
-856 95 103 0
-856 95 108 0
-856 95 142 0
-856 95 145 0
-856 95 150 0
-856 95 158 0
-856 95 162 0
-856 115 160 0
-857 6 116 0
-857 11 116 0
-857 28 53 0
-857 32 67 0
-857 33 116 0
-857 40 116 0
-857 62 121 0
-857 121 135 0
-857 135 145 0
-858 19 88 0
-858 23 88 0
-858 41 80 0
-858 71 80 0
-858 80 89 0
-858 80 120 0
-858 86 129 0
-858 88 113 0
-858 88 148 0
-858 92 116 0
-858 96 110 0
-858 96 138 0
-859 4 20 0
-859 4 125 0
-859 62 146 0
-859 135 146 0
-860 6 109 0
-860 11 92 0
-860 13 145 0
-860 14 98 0
-860 45 117 0
-860 53 128 0
-860 97 117 0
-861 12 113 0
-861 12 123 0
-861 20 84 0
-861 20 97 0
-861 20 118 0
-861 20 125 0
-861 42 159 0
-861 45 51 0
-861 50 148 0
-861 64 97 0
-862 12 21 0
-862 12 36 0
-862 12 49 0
-862 12 50 0
-862 12 105 0
-862 12 114 0
-862 12 134 0
-862 12 140 0
-862 12 141 0
-862 12 159 0
-862 18 20 0
-862 19 82 0
-862 20 117 0
-862 23 82 0
-862 31 74 0
-862 48 117 0
-862 53 149 0
-862 74 159 0
-862 82 113 0
-863 5 106 0
-863 41 151 0
-863 46 106 0
-863 48 51 0
-863 53 81 0
-863 57 102 0
-863 71 151 0
-863 78 107 0
-863 89 151 0
-863 96 106 0
-863 120 151 0
-864 4 149 0
-864 7 53 0
-864 9 149 0
-864 10 149 0
-864 11 53 0
-864 12 15 0
-864 12 34 0
-864 12 74 0
-864 12 126 0
-864 12 139 0
-864 12 148 0
-864 12 149 0
-864 28 109 0
-864 48 74 0
-864 48 149 0
-864 51 53 0
-864 53 58 0
-864 53 89 0
-864 53 97 0
-864 53 107 0
-864 53 159 0
-864 72 104 0
-864 103 149 0
-864 108 149 0
-864 109 114 0
-864 142 149 0
-864 145 149 0
-864 149 158 0
-864 149 162 0
-865 12 78 0
-865 33 127 0
-865 46 96 0
-865 46 103 0
-865 58 111 0
-865 96 151 0
-865 103 151 0
-865 112 149 0
-866 28 157 0
-866 37 45 0
-866 43 80 0
-866 45 128 0
-866 46 58 0
-866 47 72 0
-866 56 58 0
-866 72 86 0
-867 2 27 0
-867 5 103 0
-867 13 138 0
-867 17 108 0
-867 78 161 0
-867 99 104 0
-867 99 108 0
-867 99 138 0
-867 103 152 0
-868 13 99 0
-868 28 104 0
-868 46 99 0
-868 55 120 0
-868 63 149 0
-868 80 157 0
-868 93 99 0
-868 95 99 0
-868 99 108 0
-868 99 135 0
-868 99 149 0
-869 4 6 0
-869 4 11 0
-869 4 33 0
-869 4 40 0
-869 32 38 0
-869 48 62 0
-869 48 135 0
-869 56 122 0
-869 58 122 0
-869 103 122 0
-869 122 151 0
-870 1 25 0
-870 1 65 0
-870 1 91 0
-870 1 126 0
-870 2 127 0
-870 10 42 0
-870 10 93 0
-870 10 133 0
-870 10 158 0
-870 20 138 0
-870 25 86 0
-870 37 118 0
-870 38 138 0
-870 124 134 0
-871 9 110 0
-871 9 138 0
-871 13 93 0
-871 30 100 0
-871 41 162 0
-871 54 66 0
-871 54 133 0
-871 71 162 0
-871 89 162 0
-871 93 120 0
-871 116 142 0
-871 120 162 0
-872 6 162 0
-872 9 24 0
-872 9 100 0
-872 9 101 0
-872 9 116 0
-872 9 127 0
-872 9 142 0
-872 11 162 0
-872 13 120 0
-872 27 160 0
-872 33 162 0
-872 40 162 0
-872 46 120 0
-872 89 142 0
-872 93 120 0
-872 95 120 0
-872 104 125 0
-872 120 135 0
-872 120 149 0
-873 10 11 0
-873 10 145 0
-873 13 40 0
-873 40 46 0
-873 40 93 0
-873 40 95 0
-873 40 135 0
-873 40 149 0
-873 41 158 0
-873 59 145 0
-873 71 158 0
-873 85 94 0
-873 89 158 0
-873 117 157 0
-873 120 158 0
-873 128 145 0
-873 129 145 0
-873 145 150 0
-873 145 164 0
-874 6 158 0
-874 10 150 0
-874 11 158 0
-874 33 158 0
-874 38 128 0
-874 40 95 0
-874 40 158 0
-874 62 122 0
-874 62 136 0
-874 63 145 0
-874 81 145 0
-874 95 135 0
-875 13 103 0
-875 30 57 0
-875 31 66 0
-875 41 108 0
-875 48 66 0
-875 51 66 0
-875 54 103 0
-875 66 74 0
-875 71 108 0
-875 89 108 0
-875 108 120 0
-876 4 64 0
-876 13 64 0
-876 20 125 0
-876 28 40 0
-876 46 64 0
-876 46 110 0
-876 55 117 0
-876 64 93 0
-876 64 95 0
-876 64 135 0
-876 64 149 0
-877 4 64 0
-877 4 143 0
-877 23 132 0
-877 48 113 0
-877 48 123 0
-877 49 94 0
-877 64 81 0
-877 64 117 0
-877 81 135 0
-878 14 73 0
-878 20 45 0
-878 29 43 0
-878 31 51 0
-878 43 100 0
-878 51 149 0
-878 55 125 0
-878 73 102 0
-879 12 74 0
-879 12 149 0
-879 23 96 0
-879 46 84 0
-879 48 74 0
-879 48 149 0
-879 51 53 0
-879 71 164 0
-880 4 151 0
-880 5 103 0
-880 9 151 0
-880 10 151 0
-880 36 82 0
-880 46 103 0
-880 48 151 0
-880 49 164 0
-880 64 90 0
-880 96 103 0
-880 103 151 0
-880 108 151 0
-880 142 151 0
-880 145 151 0
-880 151 158 0
-880 151 162 0
-881 2 7 0
-881 5 7 0
-881 12 36 0
-881 12 162 0
-881 39 108 0
-881 43 80 0
-881 75 108 0
-881 96 107 0
-882 9 135 0
-882 55 135 0
-882 99 157 0
-882 104 157 0
-882 107 164 0
-882 135 146 0
-882 135 161 0
-883 43 58 0
-883 69 97 0
-883 80 157 0
-883 99 108 0
-884 4 80 0
-884 7 104 0
-884 9 80 0
-884 10 80 0
-884 13 135 0
-884 32 45 0
-884 48 80 0
-884 49 128 0
-884 54 135 0
-884 63 87 0
-884 80 103 0
-884 80 108 0
-884 80 142 0
-884 80 145 0
-884 80 158 0
-884 80 162 0
-885 6 43 0
-885 63 117 0
-885 69 70 0
-885 81 97 0
-886 7 138 0
-886 41 45 0
-886 104 110 0
-886 114 130 0
-887 2 100 0
-887 4 20 0
-887 9 20 0
-887 10 20 0
-887 13 62 0
-887 13 135 0
-887 20 48 0
-887 20 103 0
-887 20 108 0
-887 20 142 0
-887 20 145 0
-887 20 158 0
-887 20 162 0
-887 43 57 0
-887 97 117 0
-887 98 110 0
-888 4 64 0
-888 7 114 0
-888 20 125 0
-888 45 51 0
-889 13 28 0
-889 13 121 0
-889 13 132 0
-889 13 145 0
-889 64 125 0
-889 117 125 0
-889 127 159 0
-890 4 68 0
-890 4 126 0
-890 12 159 0
-890 20 45 0
-890 49 97 0
-890 96 153 0
-890 96 158 0
-890 97 123 0
-891 2 127 0
-891 4 74 0
-891 9 74 0
-891 10 74 0
-891 12 48 0
-891 48 74 0
-891 48 123 0
-891 48 149 0
-891 74 103 0
-891 74 108 0
-891 74 142 0
-891 74 145 0
-891 74 158 0
-891 74 162 0
-891 99 141 0
-891 134 153 0
-892 13 103 0
-892 32 47 0
-892 33 127 0
-892 46 103 0
-892 87 102 0
-892 93 103 0
-892 95 103 0
-892 98 102 0
-892 103 135 0
-892 103 149 0
-892 110 123 0
-892 123 161 0
-893 39 132 0
-893 60 151 0
-893 92 102 0
-893 106 112 0
-893 121 151 0
-894 43 124 0
-894 44 160 0
-894 62 125 0
-894 93 162 0
-894 108 162 0
-894 125 135 0
-895 13 142 0
-895 46 142 0
-895 53 101 0
-895 93 142 0
-895 95 142 0
-895 101 111 0
-895 135 142 0
-895 142 149 0
-895 142 158 0
-896 1 30 0
-896 9 162 0
-896 44 55 0
-896 45 56 0
-896 73 77 0
-896 116 158 0
-897 28 42 0
-897 31 43 0
-897 38 50 0
-897 65 72 0
-897 145 158 0
-897 150 162 0
-898 10 13 0
-898 10 46 0
-898 10 93 0
-898 10 95 0
-898 10 135 0
-898 10 149 0
-898 10 162 0
-898 53 129 0
-898 111 129 0
-899 4 158 0
-899 13 157 0
-899 42 85 0
-899 45 115 0
-899 54 157 0
-899 95 158 0
-900 19 84 0
-900 47 156 0
-900 74 105 0
-900 74 146 0
-900 126 161 0
-901 5 63 0
-901 5 132 0
-901 13 48 0
-901 46 48 0
-901 47 87 0
-901 47 98 0
-901 48 93 0
-901 48 95 0
-901 48 135 0
-901 48 149 0
-901 57 102 0
-901 71 164 0
-902 1 0
-1 902 0
-902 903 0
-2 903 0
-903 902 2 0
-904 902 0
-904 2 0
-902 -2 904 0
-903 905 0
-3 905 0
-905 903 3 0
-904 906 0
-903 -3 906 0
-906 904 903 0
-906 904 3 0
-907 904 0
-907 3 0
-904 -3 907 0
-905 908 0
-4 908 0
-908 905 4 0
-906 909 0
-905 -4 909 0
-909 906 905 0
-909 906 4 0
-907 910 0
-906 -4 910 0
-910 907 906 0
-910 907 4 0
-911 907 0
-911 4 0
-907 -4 911 0
-908 912 0
-5 912 0
-912 908 5 0
-909 913 0
-908 -5 913 0
-913 909 908 0
-913 909 5 0
-910 914 0
-909 -5 914 0
-914 910 909 0
-914 910 5 0
-911 915 0
-910 -5 915 0
-915 911 910 0
-915 911 5 0
-916 911 0
-916 5 0
-911 -5 916 0
-912 917 0
-6 917 0
-917 912 6 0
-913 918 0
-912 -6 918 0
-918 913 912 0
-918 913 6 0
-914 919 0
-913 -6 919 0
-919 914 913 0
-919 914 6 0
-915 920 0
-914 -6 920 0
-920 915 914 0
-920 915 6 0
-916 921 0
-915 -6 921 0
-921 916 915 0
-921 916 6 0
-922 916 0
-922 6 0
-916 -6 922 0
-917 923 0
-7 923 0
-923 917 7 0
-918 924 0
-917 -7 924 0
-924 918 917 0
-924 918 7 0
-919 925 0
-918 -7 925 0
-925 919 918 0
-925 919 7 0
-920 926 0
-919 -7 926 0
-926 920 919 0
-926 920 7 0
-921 927 0
-920 -7 927 0
-927 921 920 0
-927 921 7 0
-922 928 0
-921 -7 928 0
-928 922 921 0
-928 922 7 0
-929 922 0
-929 7 0
-922 -7 929 0
-923 930 0
-8 930 0
-930 923 8 0
-924 931 0
-923 -8 931 0
-931 924 923 0
-931 924 8 0
-925 932 0
-924 -8 932 0
-932 925 924 0
-932 925 8 0
-926 933 0
-925 -8 933 0
-933 926 925 0
-933 926 8 0
-927 934 0
-926 -8 934 0
-934 927 926 0
-934 927 8 0
-928 935 0
-927 -8 935 0
-935 928 927 0
-935 928 8 0
-929 936 0
-928 -8 936 0
-936 929 928 0
-936 929 8 0
-930 937 0
-9 937 0
-937 930 9 0
-931 938 0
-930 -9 938 0
-938 931 930 0
-938 931 9 0
-932 939 0
-931 -9 939 0
-939 932 931 0
-939 932 9 0
-933 940 0
-932 -9 940 0
-940 933 932 0
-940 933 9 0
-934 941 0
-933 -9 941 0
-941 934 933 0
-941 934 9 0
-935 942 0
-934 -9 942 0
-942 935 934 0
-942 935 9 0
-936 943 0
-935 -9 943 0
-943 936 935 0
-943 936 9 0
-937 944 0
-10 944 0
-944 937 10 0
-938 945 0
-937 -10 945 0
-945 938 937 0
-945 938 10 0
-939 946 0
-938 -10 946 0
-946 939 938 0
-946 939 10 0
-940 947 0
-939 -10 947 0
-947 940 939 0
-947 940 10 0
-941 948 0
-940 -10 948 0
-948 941 940 0
-948 941 10 0
-942 949 0
-941 -10 949 0
-949 942 941 0
-949 942 10 0
-943 950 0
-942 -10 950 0
-950 943 942 0
-950 943 10 0
-944 951 0
-11 951 0
-951 944 11 0
-945 952 0
-944 -11 952 0
-952 945 944 0
-952 945 11 0
-946 953 0
-945 -11 953 0
-953 946 945 0
-953 946 11 0
-947 954 0
-946 -11 954 0
-954 947 946 0
-954 947 11 0
-948 955 0
-947 -11 955 0
-955 948 947 0
-955 948 11 0
-949 956 0
-948 -11 956 0
-956 949 948 0
-956 949 11 0
-950 957 0
-949 -11 957 0
-957 950 949 0
-957 950 11 0
-951 958 0
-12 958 0
-958 951 12 0
-952 959 0
-951 -12 959 0
-959 952 951 0
-959 952 12 0
-953 960 0
-952 -12 960 0
-960 953 952 0
-960 953 12 0
-954 961 0
-953 -12 961 0
-961 954 953 0
-961 954 12 0
-955 962 0
-954 -12 962 0
-962 955 954 0
-962 955 12 0
-956 963 0
-955 -12 963 0
-963 956 955 0
-963 956 12 0
-957 964 0
-956 -12 964 0
-964 957 956 0
-964 957 12 0
-958 965 0
-13 965 0
-965 958 13 0
-959 966 0
-958 -13 966 0
-966 959 958 0
-966 959 13 0
-960 967 0
-959 -13 967 0
-967 960 959 0
-967 960 13 0
-961 968 0
-960 -13 968 0
-968 961 960 0
-968 961 13 0
-962 969 0
-961 -13 969 0
-969 962 961 0
-969 962 13 0
-963 970 0
-962 -13 970 0
-970 963 962 0
-970 963 13 0
-964 971 0
-963 -13 971 0
-971 964 963 0
-971 964 13 0
-965 972 0
-14 972 0
-972 965 14 0
-966 973 0
-965 -14 973 0
-973 966 965 0
-973 966 14 0
-967 974 0
-966 -14 974 0
-974 967 966 0
-974 967 14 0
-968 975 0
-967 -14 975 0
-975 968 967 0
-975 968 14 0
-969 976 0
-968 -14 976 0
-976 969 968 0
-976 969 14 0
-970 977 0
-969 -14 977 0
-977 970 969 0
-977 970 14 0
-971 978 0
-970 -14 978 0
-978 971 970 0
-978 971 14 0
-972 979 0
-15 979 0
-979 972 15 0
-973 980 0
-972 -15 980 0
-980 973 972 0
-980 973 15 0
-974 981 0
-973 -15 981 0
-981 974 973 0
-981 974 15 0
-975 982 0
-974 -15 982 0
-982 975 974 0
-982 975 15 0
-976 983 0
-975 -15 983 0
-983 976 975 0
-983 976 15 0
-977 984 0
-976 -15 984 0
-984 977 976 0
-984 977 15 0
-978 985 0
-977 -15 985 0
-985 978 977 0
-985 978 15 0
-979 986 0
-16 986 0
-986 979 16 0
-980 987 0
-979 -16 987 0
-987 980 979 0
-987 980 16 0
-981 988 0
-980 -16 988 0
-988 981 980 0
-988 981 16 0
-982 989 0
-981 -16 989 0
-989 982 981 0
-989 982 16 0
-983 990 0
-982 -16 990 0
-990 983 982 0
-990 983 16 0
-984 991 0
-983 -16 991 0
-991 984 983 0
-991 984 16 0
-985 992 0
-984 -16 992 0
-992 985 984 0
-992 985 16 0
-986 993 0
-17 993 0
-993 986 17 0
-987 994 0
-986 -17 994 0
-994 987 986 0
-994 987 17 0
-988 995 0
-987 -17 995 0
-995 988 987 0
-995 988 17 0
-989 996 0
-988 -17 996 0
-996 989 988 0
-996 989 17 0
-990 997 0
-989 -17 997 0
-997 990 989 0
-997 990 17 0
-991 998 0
-990 -17 998 0
-998 991 990 0
-998 991 17 0
-992 999 0
-991 -17 999 0
-999 992 991 0
-999 992 17 0
-993 1000 0
-18 1000 0
-1000 993 18 0
-994 1001 0
-993 -18 1001 0
-1001 994 993 0
-1001 994 18 0
-995 1002 0
-994 -18 1002 0
-1002 995 994 0
-1002 995 18 0
-996 1003 0
-995 -18 1003 0
-1003 996 995 0
-1003 996 18 0
-997 1004 0
-996 -18 1004 0
-1004 997 996 0
-1004 997 18 0
-998 1005 0
-997 -18 1005 0
-1005 998 997 0
-1005 998 18 0
-999 1006 0
-998 -18 1006 0
-1006 999 998 0
-1006 999 18 0
-1000 1007 0
-19 1007 0
-1007 1000 19 0
-1001 1008 0
-1000 -19 1008 0
-1008 1001 1000 0
-1008 1001 19 0
-1002 1009 0
-1001 -19 1009 0
-1009 1002 1001 0
-1009 1002 19 0
-1003 1010 0
-1002 -19 1010 0
-1010 1003 1002 0
-1010 1003 19 0
-1004 1011 0
-1003 -19 1011 0
-1011 1004 1003 0
-1011 1004 19 0
-1005 1012 0
-1004 -19 1012 0
-1012 1005 1004 0
-1012 1005 19 0
-1006 1013 0
-1005 -19 1013 0
-1013 1006 1005 0
-1013 1006 19 0
-1007 1014 0
-20 1014 0
-1014 1007 20 0
-1008 1015 0
-1007 -20 1015 0
-1015 1008 1007 0
-1015 1008 20 0
-1009 1016 0
-1008 -20 1016 0
-1016 1009 1008 0
-1016 1009 20 0
-1010 1017 0
-1009 -20 1017 0
-1017 1010 1009 0
-1017 1010 20 0
-1011 1018 0
-1010 -20 1018 0
-1018 1011 1010 0
-1018 1011 20 0
-1012 1019 0
-1011 -20 1019 0
-1019 1012 1011 0
-1019 1012 20 0
-1013 1020 0
-1012 -20 1020 0
-1020 1013 1012 0
-1020 1013 20 0
-1014 1021 0
-21 1021 0
-1021 1014 21 0
-1015 1022 0
-1014 -21 1022 0
-1022 1015 1014 0
-1022 1015 21 0
-1016 1023 0
-1015 -21 1023 0
-1023 1016 1015 0
-1023 1016 21 0
-1017 1024 0
-1016 -21 1024 0
-1024 1017 1016 0
-1024 1017 21 0
-1018 1025 0
-1017 -21 1025 0
-1025 1018 1017 0
-1025 1018 21 0
-1019 1026 0
-1018 -21 1026 0
-1026 1019 1018 0
-1026 1019 21 0
-1020 1027 0
-1019 -21 1027 0
-1027 1020 1019 0
-1027 1020 21 0
-1021 1028 0
-22 1028 0
-1028 1021 22 0
-1022 1029 0
-1021 -22 1029 0
-1029 1022 1021 0
-1029 1022 22 0
-1023 1030 0
-1022 -22 1030 0
-1030 1023 1022 0
-1030 1023 22 0
-1024 1031 0
-1023 -22 1031 0
-1031 1024 1023 0
-1031 1024 22 0
-1025 1032 0
-1024 -22 1032 0
-1032 1025 1024 0
-1032 1025 22 0
-1026 1033 0
-1025 -22 1033 0
-1033 1026 1025 0
-1033 1026 22 0
-1027 1034 0
-1026 -22 1034 0
-1034 1027 1026 0
-1034 1027 22 0
-1028 1035 0
-23 1035 0
-1035 1028 23 0
-1029 1036 0
-1028 -23 1036 0
-1036 1029 1028 0
-1036 1029 23 0
-1030 1037 0
-1029 -23 1037 0
-1037 1030 1029 0
-1037 1030 23 0
-1031 1038 0
-1030 -23 1038 0
-1038 1031 1030 0
-1038 1031 23 0
-1032 1039 0
-1031 -23 1039 0
-1039 1032 1031 0
-1039 1032 23 0
-1033 1040 0
-1032 -23 1040 0
-1040 1033 1032 0
-1040 1033 23 0
-1034 1041 0
-1033 -23 1041 0
-1041 1034 1033 0
-1041 1034 23 0
-1035 1042 0
-24 1042 0
-1042 1035 24 0
-1036 1043 0
-1035 -24 1043 0
-1043 1036 1035 0
-1043 1036 24 0
-1037 1044 0
-1036 -24 1044 0
-1044 1037 1036 0
-1044 1037 24 0
-1038 1045 0
-1037 -24 1045 0
-1045 1038 1037 0
-1045 1038 24 0
-1039 1046 0
-1038 -24 1046 0
-1046 1039 1038 0
-1046 1039 24 0
-1040 1047 0
-1039 -24 1047 0
-1047 1040 1039 0
-1047 1040 24 0
-1041 1048 0
-1040 -24 1048 0
-1048 1041 1040 0
-1048 1041 24 0
-1042 1049 0
-25 1049 0
-1049 1042 25 0
-1043 1050 0
-1042 -25 1050 0
-1050 1043 1042 0
-1050 1043 25 0
-1044 1051 0
-1043 -25 1051 0
-1051 1044 1043 0
-1051 1044 25 0
-1045 1052 0
-1044 -25 1052 0
-1052 1045 1044 0
-1052 1045 25 0
-1046 1053 0
-1045 -25 1053 0
-1053 1046 1045 0
-1053 1046 25 0
-1047 1054 0
-1046 -25 1054 0
-1054 1047 1046 0
-1054 1047 25 0
-1048 1055 0
-1047 -25 1055 0
-1055 1048 1047 0
-1055 1048 25 0
-1049 1056 0
-26 1056 0
-1056 1049 26 0
-1050 1057 0
-1049 -26 1057 0
-1057 1050 1049 0
-1057 1050 26 0
-1051 1058 0
-1050 -26 1058 0
-1058 1051 1050 0
-1058 1051 26 0
-1052 1059 0
-1051 -26 1059 0
-1059 1052 1051 0
-1059 1052 26 0
-1053 1060 0
-1052 -26 1060 0
-1060 1053 1052 0
-1060 1053 26 0
-1054 1061 0
-1053 -26 1061 0
-1061 1054 1053 0
-1061 1054 26 0
-1055 1062 0
-1054 -26 1062 0
-1062 1055 1054 0
-1062 1055 26 0
-1056 1063 0
-27 1063 0
-1063 1056 27 0
-1057 1064 0
-1056 -27 1064 0
-1064 1057 1056 0
-1064 1057 27 0
-1058 1065 0
-1057 -27 1065 0
-1065 1058 1057 0
-1065 1058 27 0
-1059 1066 0
-1058 -27 1066 0
-1066 1059 1058 0
-1066 1059 27 0
-1060 1067 0
-1059 -27 1067 0
-1067 1060 1059 0
-1067 1060 27 0
-1061 1068 0
-1060 -27 1068 0
-1068 1061 1060 0
-1068 1061 27 0
-1062 1069 0
-1061 -27 1069 0
-1069 1062 1061 0
-1069 1062 27 0
-1063 1070 0
-28 1070 0
-1070 1063 28 0
-1064 1071 0
-1063 -28 1071 0
-1071 1064 1063 0
-1071 1064 28 0
-1065 1072 0
-1064 -28 1072 0
-1072 1065 1064 0
-1072 1065 28 0
-1066 1073 0
-1065 -28 1073 0
-1073 1066 1065 0
-1073 1066 28 0
-1067 1074 0
-1066 -28 1074 0
-1074 1067 1066 0
-1074 1067 28 0
-1068 1075 0
-1067 -28 1075 0
-1075 1068 1067 0
-1075 1068 28 0
-1069 1076 0
-1068 -28 1076 0
-1076 1069 1068 0
-1076 1069 28 0
-1070 1077 0
-29 1077 0
-1077 1070 29 0
-1071 1078 0
-1070 -29 1078 0
-1078 1071 1070 0
-1078 1071 29 0
-1072 1079 0
-1071 -29 1079 0
-1079 1072 1071 0
-1079 1072 29 0
-1073 1080 0
-1072 -29 1080 0
-1080 1073 1072 0
-1080 1073 29 0
-1074 1081 0
-1073 -29 1081 0
-1081 1074 1073 0
-1081 1074 29 0
-1075 1082 0
-1074 -29 1082 0
-1082 1075 1074 0
-1082 1075 29 0
-1076 1083 0
-1075 -29 1083 0
-1083 1076 1075 0
-1083 1076 29 0
-1077 1084 0
-30 1084 0
-1084 1077 30 0
-1078 1085 0
-1077 -30 1085 0
-1085 1078 1077 0
-1085 1078 30 0
-1079 1086 0
-1078 -30 1086 0
-1086 1079 1078 0
-1086 1079 30 0
-1080 1087 0
-1079 -30 1087 0
-1087 1080 1079 0
-1087 1080 30 0
-1081 1088 0
-1080 -30 1088 0
-1088 1081 1080 0
-1088 1081 30 0
-1082 1089 0
-1081 -30 1089 0
-1089 1082 1081 0
-1089 1082 30 0
-1083 1090 0
-1082 -30 1090 0
-1090 1083 1082 0
-1090 1083 30 0
-1084 1091 0
-31 1091 0
-1091 1084 31 0
-1085 1092 0
-1084 -31 1092 0
-1092 1085 1084 0
-1092 1085 31 0
-1086 1093 0
-1085 -31 1093 0
-1093 1086 1085 0
-1093 1086 31 0
-1087 1094 0
-1086 -31 1094 0
-1094 1087 1086 0
-1094 1087 31 0
-1088 1095 0
-1087 -31 1095 0
-1095 1088 1087 0
-1095 1088 31 0
-1089 1096 0
-1088 -31 1096 0
-1096 1089 1088 0
-1096 1089 31 0
-1090 1097 0
-1089 -31 1097 0
-1097 1090 1089 0
-1097 1090 31 0
-1091 1098 0
-32 1098 0
-1098 1091 32 0
-1092 1099 0
-1091 -32 1099 0
-1099 1092 1091 0
-1099 1092 32 0
-1093 1100 0
-1092 -32 1100 0
-1100 1093 1092 0
-1100 1093 32 0
-1094 1101 0
-1093 -32 1101 0
-1101 1094 1093 0
-1101 1094 32 0
-1095 1102 0
-1094 -32 1102 0
-1102 1095 1094 0
-1102 1095 32 0
-1096 1103 0
-1095 -32 1103 0
-1103 1096 1095 0
-1103 1096 32 0
-1097 1104 0
-1096 -32 1104 0
-1104 1097 1096 0
-1104 1097 32 0
-1098 1105 0
-33 1105 0
-1105 1098 33 0
-1099 1106 0
-1098 -33 1106 0
-1106 1099 1098 0
-1106 1099 33 0
-1100 1107 0
-1099 -33 1107 0
-1107 1100 1099 0
-1107 1100 33 0
-1101 1108 0
-1100 -33 1108 0
-1108 1101 1100 0
-1108 1101 33 0
-1102 1109 0
-1101 -33 1109 0
-1109 1102 1101 0
-1109 1102 33 0
-1103 1110 0
-1102 -33 1110 0
-1110 1103 1102 0
-1110 1103 33 0
-1104 1111 0
-1103 -33 1111 0
-1111 1104 1103 0
-1111 1104 33 0
-1105 1112 0
-34 1112 0
-1112 1105 34 0
-1106 1113 0
-1105 -34 1113 0
-1113 1106 1105 0
-1113 1106 34 0
-1107 1114 0
-1106 -34 1114 0
-1114 1107 1106 0
-1114 1107 34 0
-1108 1115 0
-1107 -34 1115 0
-1115 1108 1107 0
-1115 1108 34 0
-1109 1116 0
-1108 -34 1116 0
-1116 1109 1108 0
-1116 1109 34 0
-1110 1117 0
-1109 -34 1117 0
-1117 1110 1109 0
-1117 1110 34 0
-1111 1118 0
-1110 -34 1118 0
-1118 1111 1110 0
-1118 1111 34 0
-1112 1119 0
-35 1119 0
-1119 1112 35 0
-1113 1120 0
-1112 -35 1120 0
-1120 1113 1112 0
-1120 1113 35 0
-1114 1121 0
-1113 -35 1121 0
-1121 1114 1113 0
-1121 1114 35 0
-1115 1122 0
-1114 -35 1122 0
-1122 1115 1114 0
-1122 1115 35 0
-1116 1123 0
-1115 -35 1123 0
-1123 1116 1115 0
-1123 1116 35 0
-1117 1124 0
-1116 -35 1124 0
-1124 1117 1116 0
-1124 1117 35 0
-1118 1125 0
-1117 -35 1125 0
-1125 1118 1117 0
-1125 1118 35 0
-1119 1126 0
-36 1126 0
-1126 1119 36 0
-1120 1127 0
-1119 -36 1127 0
-1127 1120 1119 0
-1127 1120 36 0
-1121 1128 0
-1120 -36 1128 0
-1128 1121 1120 0
-1128 1121 36 0
-1122 1129 0
-1121 -36 1129 0
-1129 1122 1121 0
-1129 1122 36 0
-1123 1130 0
-1122 -36 1130 0
-1130 1123 1122 0
-1130 1123 36 0
-1124 1131 0
-1123 -36 1131 0
-1131 1124 1123 0
-1131 1124 36 0
-1125 1132 0
-1124 -36 1132 0
-1132 1125 1124 0
-1132 1125 36 0
-1126 1133 0
-37 1133 0
-1133 1126 37 0
-1127 1134 0
-1126 -37 1134 0
-1134 1127 1126 0
-1134 1127 37 0
-1128 1135 0
-1127 -37 1135 0
-1135 1128 1127 0
-1135 1128 37 0
-1129 1136 0
-1128 -37 1136 0
-1136 1129 1128 0
-1136 1129 37 0
-1130 1137 0
-1129 -37 1137 0
-1137 1130 1129 0
-1137 1130 37 0
-1131 1138 0
-1130 -37 1138 0
-1138 1131 1130 0
-1138 1131 37 0
-1132 1139 0
-1131 -37 1139 0
-1139 1132 1131 0
-1139 1132 37 0
-1133 1140 0
-38 1140 0
-1140 1133 38 0
-1134 1141 0
-1133 -38 1141 0
-1141 1134 1133 0
-1141 1134 38 0
-1135 1142 0
-1134 -38 1142 0
-1142 1135 1134 0
-1142 1135 38 0
-1136 1143 0
-1135 -38 1143 0
-1143 1136 1135 0
-1143 1136 38 0
-1137 1144 0
-1136 -38 1144 0
-1144 1137 1136 0
-1144 1137 38 0
-1138 1145 0
-1137 -38 1145 0
-1145 1138 1137 0
-1145 1138 38 0
-1139 1146 0
-1138 -38 1146 0
-1146 1139 1138 0
-1146 1139 38 0
-1140 1147 0
-39 1147 0
-1147 1140 39 0
-1141 1148 0
-1140 -39 1148 0
-1148 1141 1140 0
-1148 1141 39 0
-1142 1149 0
-1141 -39 1149 0
-1149 1142 1141 0
-1149 1142 39 0
-1143 1150 0
-1142 -39 1150 0
-1150 1143 1142 0
-1150 1143 39 0
-1144 1151 0
-1143 -39 1151 0
-1151 1144 1143 0
-1151 1144 39 0
-1145 1152 0
-1144 -39 1152 0
-1152 1145 1144 0
-1152 1145 39 0
-1146 1153 0
-1145 -39 1153 0
-1153 1146 1145 0
-1153 1146 39 0
-1147 1154 0
-40 1154 0
-1154 1147 40 0
-1148 1155 0
-1147 -40 1155 0
-1155 1148 1147 0
-1155 1148 40 0
-1149 1156 0
-1148 -40 1156 0
-1156 1149 1148 0
-1156 1149 40 0
-1150 1157 0
-1149 -40 1157 0
-1157 1150 1149 0
-1157 1150 40 0
-1151 1158 0
-1150 -40 1158 0
-1158 1151 1150 0
-1158 1151 40 0
-1152 1159 0
-1151 -40 1159 0
-1159 1152 1151 0
-1159 1152 40 0
-1153 1160 0
-1152 -40 1160 0
-1160 1153 1152 0
-1160 1153 40 0
-1154 1161 0
-41 1161 0
-1161 1154 41 0
-1155 1162 0
-1154 -41 1162 0
-1162 1155 1154 0
-1162 1155 41 0
-1156 1163 0
-1155 -41 1163 0
-1163 1156 1155 0
-1163 1156 41 0
-1157 1164 0
-1156 -41 1164 0
-1164 1157 1156 0
-1164 1157 41 0
-1158 1165 0
-1157 -41 1165 0
-1165 1158 1157 0
-1165 1158 41 0
-1159 1166 0
-1158 -41 1166 0
-1166 1159 1158 0
-1166 1159 41 0
-1160 1167 0
-1159 -41 1167 0
-1167 1160 1159 0
-1167 1160 41 0
-1161 1168 0
-42 1168 0
-1168 1161 42 0
-1162 1169 0
-1161 -42 1169 0
-1169 1162 1161 0
-1169 1162 42 0
-1163 1170 0
-1162 -42 1170 0
-1170 1163 1162 0
-1170 1163 42 0
-1164 1171 0
-1163 -42 1171 0
-1171 1164 1163 0
-1171 1164 42 0
-1165 1172 0
-1164 -42 1172 0
-1172 1165 1164 0
-1172 1165 42 0
-1166 1173 0
-1165 -42 1173 0
-1173 1166 1165 0
-1173 1166 42 0
-1167 1174 0
-1166 -42 1174 0
-1174 1167 1166 0
-1174 1167 42 0
-1168 1175 0
-43 1175 0
-1175 1168 43 0
-1169 1176 0
-1168 -43 1176 0
-1176 1169 1168 0
-1176 1169 43 0
-1170 1177 0
-1169 -43 1177 0
-1177 1170 1169 0
-1177 1170 43 0
-1171 1178 0
-1170 -43 1178 0
-1178 1171 1170 0
-1178 1171 43 0
-1172 1179 0
-1171 -43 1179 0
-1179 1172 1171 0
-1179 1172 43 0
-1173 1180 0
-1172 -43 1180 0
-1180 1173 1172 0
-1180 1173 43 0
-1174 1181 0
-1173 -43 1181 0
-1181 1174 1173 0
-1181 1174 43 0
-1175 1182 0
-44 1182 0
-1182 1175 44 0
-1176 1183 0
-1175 -44 1183 0
-1183 1176 1175 0
-1183 1176 44 0
-1177 1184 0
-1176 -44 1184 0
-1184 1177 1176 0
-1184 1177 44 0
-1178 1185 0
-1177 -44 1185 0
-1185 1178 1177 0
-1185 1178 44 0
-1179 1186 0
-1178 -44 1186 0
-1186 1179 1178 0
-1186 1179 44 0
-1180 1187 0
-1179 -44 1187 0
-1187 1180 1179 0
-1187 1180 44 0
-1181 1188 0
-1180 -44 1188 0
-1188 1181 1180 0
-1188 1181 44 0
-1182 1189 0
-45 1189 0
-1189 1182 45 0
-1183 1190 0
-1182 -45 1190 0
-1190 1183 1182 0
-1190 1183 45 0
-1184 1191 0
-1183 -45 1191 0
-1191 1184 1183 0
-1191 1184 45 0
-1185 1192 0
-1184 -45 1192 0
-1192 1185 1184 0
-1192 1185 45 0
-1186 1193 0
-1185 -45 1193 0
-1193 1186 1185 0
-1193 1186 45 0
-1187 1194 0
-1186 -45 1194 0
-1194 1187 1186 0
-1194 1187 45 0
-1188 1195 0
-1187 -45 1195 0
-1195 1188 1187 0
-1195 1188 45 0
-1189 1196 0
-46 1196 0
-1196 1189 46 0
-1190 1197 0
-1189 -46 1197 0
-1197 1190 1189 0
-1197 1190 46 0
-1191 1198 0
-1190 -46 1198 0
-1198 1191 1190 0
-1198 1191 46 0
-1192 1199 0
-1191 -46 1199 0
-1199 1192 1191 0
-1199 1192 46 0
-1193 1200 0
-1192 -46 1200 0
-1200 1193 1192 0
-1200 1193 46 0
-1194 1201 0
-1193 -46 1201 0
-1201 1194 1193 0
-1201 1194 46 0
-1195 1202 0
-1194 -46 1202 0
-1202 1195 1194 0
-1202 1195 46 0
-1196 1203 0
-47 1203 0
-1203 1196 47 0
-1197 1204 0
-1196 -47 1204 0
-1204 1197 1196 0
-1204 1197 47 0
-1198 1205 0
-1197 -47 1205 0
-1205 1198 1197 0
-1205 1198 47 0
-1199 1206 0
-1198 -47 1206 0
-1206 1199 1198 0
-1206 1199 47 0
-1200 1207 0
-1199 -47 1207 0
-1207 1200 1199 0
-1207 1200 47 0
-1201 1208 0
-1200 -47 1208 0
-1208 1201 1200 0
-1208 1201 47 0
-1202 1209 0
-1201 -47 1209 0
-1209 1202 1201 0
-1209 1202 47 0
-1203 1210 0
-48 1210 0
-1210 1203 48 0
-1204 1211 0
-1203 -48 1211 0
-1211 1204 1203 0
-1211 1204 48 0
-1205 1212 0
-1204 -48 1212 0
-1212 1205 1204 0
-1212 1205 48 0
-1206 1213 0
-1205 -48 1213 0
-1213 1206 1205 0
-1213 1206 48 0
-1207 1214 0
-1206 -48 1214 0
-1214 1207 1206 0
-1214 1207 48 0
-1208 1215 0
-1207 -48 1215 0
-1215 1208 1207 0
-1215 1208 48 0
-1209 1216 0
-1208 -48 1216 0
-1216 1209 1208 0
-1216 1209 48 0
-1210 1217 0
-49 1217 0
-1217 1210 49 0
-1211 1218 0
-1210 -49 1218 0
-1218 1211 1210 0
-1218 1211 49 0
-1212 1219 0
-1211 -49 1219 0
-1219 1212 1211 0
-1219 1212 49 0
-1213 1220 0
-1212 -49 1220 0
-1220 1213 1212 0
-1220 1213 49 0
-1214 1221 0
-1213 -49 1221 0
-1221 1214 1213 0
-1221 1214 49 0
-1215 1222 0
-1214 -49 1222 0
-1222 1215 1214 0
-1222 1215 49 0
-1216 1223 0
-1215 -49 1223 0
-1223 1216 1215 0
-1223 1216 49 0
-1217 1224 0
-50 1224 0
-1224 1217 50 0
-1218 1225 0
-1217 -50 1225 0
-1225 1218 1217 0
-1225 1218 50 0
-1219 1226 0
-1218 -50 1226 0
-1226 1219 1218 0
-1226 1219 50 0
-1220 1227 0
-1219 -50 1227 0
-1227 1220 1219 0
-1227 1220 50 0
-1221 1228 0
-1220 -50 1228 0
-1228 1221 1220 0
-1228 1221 50 0
-1222 1229 0
-1221 -50 1229 0
-1229 1222 1221 0
-1229 1222 50 0
-1223 1230 0
-1222 -50 1230 0
-1230 1223 1222 0
-1230 1223 50 0
-1224 1231 0
-51 1231 0
-1231 1224 51 0
-1225 1232 0
-1224 -51 1232 0
-1232 1225 1224 0
-1232 1225 51 0
-1226 1233 0
-1225 -51 1233 0
-1233 1226 1225 0
-1233 1226 51 0
-1227 1234 0
-1226 -51 1234 0
-1234 1227 1226 0
-1234 1227 51 0
-1228 1235 0
-1227 -51 1235 0
-1235 1228 1227 0
-1235 1228 51 0
-1229 1236 0
-1228 -51 1236 0
-1236 1229 1228 0
-1236 1229 51 0
-1230 1237 0
-1229 -51 1237 0
-1237 1230 1229 0
-1237 1230 51 0
-1231 1238 0
-52 1238 0
-1238 1231 52 0
-1232 1239 0
-1231 -52 1239 0
-1239 1232 1231 0
-1239 1232 52 0
-1233 1240 0
-1232 -52 1240 0
-1240 1233 1232 0
-1240 1233 52 0
-1234 1241 0
-1233 -52 1241 0
-1241 1234 1233 0
-1241 1234 52 0
-1235 1242 0
-1234 -52 1242 0
-1242 1235 1234 0
-1242 1235 52 0
-1236 1243 0
-1235 -52 1243 0
-1243 1236 1235 0
-1243 1236 52 0
-1237 1244 0
-1236 -52 1244 0
-1244 1237 1236 0
-1244 1237 52 0
-1238 1245 0
-53 1245 0
-1245 1238 53 0
-1239 1246 0
-1238 -53 1246 0
-1246 1239 1238 0
-1246 1239 53 0
-1240 1247 0
-1239 -53 1247 0
-1247 1240 1239 0
-1247 1240 53 0
-1241 1248 0
-1240 -53 1248 0
-1248 1241 1240 0
-1248 1241 53 0
-1242 1249 0
-1241 -53 1249 0
-1249 1242 1241 0
-1249 1242 53 0
-1243 1250 0
-1242 -53 1250 0
-1250 1243 1242 0
-1250 1243 53 0
-1244 1251 0
-1243 -53 1251 0
-1251 1244 1243 0
-1251 1244 53 0
-1245 1252 0
-54 1252 0
-1252 1245 54 0
-1246 1253 0
-1245 -54 1253 0
-1253 1246 1245 0
-1253 1246 54 0
-1247 1254 0
-1246 -54 1254 0
-1254 1247 1246 0
-1254 1247 54 0
-1248 1255 0
-1247 -54 1255 0
-1255 1248 1247 0
-1255 1248 54 0
-1249 1256 0
-1248 -54 1256 0
-1256 1249 1248 0
-1256 1249 54 0
-1250 1257 0
-1249 -54 1257 0
-1257 1250 1249 0
-1257 1250 54 0
-1251 1258 0
-1250 -54 1258 0
-1258 1251 1250 0
-1258 1251 54 0
-1252 1259 0
-55 1259 0
-1259 1252 55 0
-1253 1260 0
-1252 -55 1260 0
-1260 1253 1252 0
-1260 1253 55 0
-1254 1261 0
-1253 -55 1261 0
-1261 1254 1253 0
-1261 1254 55 0
-1255 1262 0
-1254 -55 1262 0
-1262 1255 1254 0
-1262 1255 55 0
-1256 1263 0
-1255 -55 1263 0
-1263 1256 1255 0
-1263 1256 55 0
-1257 1264 0
-1256 -55 1264 0
-1264 1257 1256 0
-1264 1257 55 0
-1258 1265 0
-1257 -55 1265 0
-1265 1258 1257 0
-1265 1258 55 0
-1259 1266 0
-56 1266 0
-1266 1259 56 0
-1260 1267 0
-1259 -56 1267 0
-1267 1260 1259 0
-1267 1260 56 0
-1261 1268 0
-1260 -56 1268 0
-1268 1261 1260 0
-1268 1261 56 0
-1262 1269 0
-1261 -56 1269 0
-1269 1262 1261 0
-1269 1262 56 0
-1263 1270 0
-1262 -56 1270 0
-1270 1263 1262 0
-1270 1263 56 0
-1264 1271 0
-1263 -56 1271 0
-1271 1264 1263 0
-1271 1264 56 0
-1265 1272 0
-1264 -56 1272 0
-1272 1265 1264 0
-1272 1265 56 0
-1266 1273 0
-57 1273 0
-1273 1266 57 0
-1267 1274 0
-1266 -57 1274 0
-1274 1267 1266 0
-1274 1267 57 0
-1268 1275 0
-1267 -57 1275 0
-1275 1268 1267 0
-1275 1268 57 0
-1269 1276 0
-1268 -57 1276 0
-1276 1269 1268 0
-1276 1269 57 0
-1270 1277 0
-1269 -57 1277 0
-1277 1270 1269 0
-1277 1270 57 0
-1271 1278 0
-1270 -57 1278 0
-1278 1271 1270 0
-1278 1271 57 0
-1272 1279 0
-1271 -57 1279 0
-1279 1272 1271 0
-1279 1272 57 0
-1273 1280 0
-58 1280 0
-1280 1273 58 0
-1274 1281 0
-1273 -58 1281 0
-1281 1274 1273 0
-1281 1274 58 0
-1275 1282 0
-1274 -58 1282 0
-1282 1275 1274 0
-1282 1275 58 0
-1276 1283 0
-1275 -58 1283 0
-1283 1276 1275 0
-1283 1276 58 0
-1277 1284 0
-1276 -58 1284 0
-1284 1277 1276 0
-1284 1277 58 0
-1278 1285 0
-1277 -58 1285 0
-1285 1278 1277 0
-1285 1278 58 0
-1279 1286 0
-1278 -58 1286 0
-1286 1279 1278 0
-1286 1279 58 0
-1280 1287 0
-59 1287 0
-1287 1280 59 0
-1281 1288 0
-1280 -59 1288 0
-1288 1281 1280 0
-1288 1281 59 0
-1282 1289 0
-1281 -59 1289 0
-1289 1282 1281 0
-1289 1282 59 0
-1283 1290 0
-1282 -59 1290 0
-1290 1283 1282 0
-1290 1283 59 0
-1284 1291 0
-1283 -59 1291 0
-1291 1284 1283 0
-1291 1284 59 0
-1285 1292 0
-1284 -59 1292 0
-1292 1285 1284 0
-1292 1285 59 0
-1286 1293 0
-1285 -59 1293 0
-1293 1286 1285 0
-1293 1286 59 0
-1287 1294 0
-60 1294 0
-1294 1287 60 0
-1288 1295 0
-1287 -60 1295 0
-1295 1288 1287 0
-1295 1288 60 0
-1289 1296 0
-1288 -60 1296 0
-1296 1289 1288 0
-1296 1289 60 0
-1290 1297 0
-1289 -60 1297 0
-1297 1290 1289 0
-1297 1290 60 0
-1291 1298 0
-1290 -60 1298 0
-1298 1291 1290 0
-1298 1291 60 0
-1292 1299 0
-1291 -60 1299 0
-1299 1292 1291 0
-1299 1292 60 0
-1293 1300 0
-1292 -60 1300 0
-1300 1293 1292 0
-1300 1293 60 0
-1294 1301 0
-61 1301 0
-1301 1294 61 0
-1295 1302 0
-1294 -61 1302 0
-1302 1295 1294 0
-1302 1295 61 0
-1296 1303 0
-1295 -61 1303 0
-1303 1296 1295 0
-1303 1296 61 0
-1297 1304 0
-1296 -61 1304 0
-1304 1297 1296 0
-1304 1297 61 0
-1298 1305 0
-1297 -61 1305 0
-1305 1298 1297 0
-1305 1298 61 0
-1299 1306 0
-1298 -61 1306 0
-1306 1299 1298 0
-1306 1299 61 0
-1300 1307 0
-1299 -61 1307 0
-1307 1300 1299 0
-1307 1300 61 0
-1301 1308 0
-62 1308 0
-1308 1301 62 0
-1302 1309 0
-1301 -62 1309 0
-1309 1302 1301 0
-1309 1302 62 0
-1303 1310 0
-1302 -62 1310 0
-1310 1303 1302 0
-1310 1303 62 0
-1304 1311 0
-1303 -62 1311 0
-1311 1304 1303 0
-1311 1304 62 0
-1305 1312 0
-1304 -62 1312 0
-1312 1305 1304 0
-1312 1305 62 0
-1306 1313 0
-1305 -62 1313 0
-1313 1306 1305 0
-1313 1306 62 0
-1307 1314 0
-1306 -62 1314 0
-1314 1307 1306 0
-1314 1307 62 0
-1308 1315 0
-63 1315 0
-1315 1308 63 0
-1309 1316 0
-1308 -63 1316 0
-1316 1309 1308 0
-1316 1309 63 0
-1310 1317 0
-1309 -63 1317 0
-1317 1310 1309 0
-1317 1310 63 0
-1311 1318 0
-1310 -63 1318 0
-1318 1311 1310 0
-1318 1311 63 0
-1312 1319 0
-1311 -63 1319 0
-1319 1312 1311 0
-1319 1312 63 0
-1313 1320 0
-1312 -63 1320 0
-1320 1313 1312 0
-1320 1313 63 0
-1314 1321 0
-1313 -63 1321 0
-1321 1314 1313 0
-1321 1314 63 0
-1315 1322 0
-64 1322 0
-1322 1315 64 0
-1316 1323 0
-1315 -64 1323 0
-1323 1316 1315 0
-1323 1316 64 0
-1317 1324 0
-1316 -64 1324 0
-1324 1317 1316 0
-1324 1317 64 0
-1318 1325 0
-1317 -64 1325 0
-1325 1318 1317 0
-1325 1318 64 0
-1319 1326 0
-1318 -64 1326 0
-1326 1319 1318 0
-1326 1319 64 0
-1320 1327 0
-1319 -64 1327 0
-1327 1320 1319 0
-1327 1320 64 0
-1321 1328 0
-1320 -64 1328 0
-1328 1321 1320 0
-1328 1321 64 0
-1322 1329 0
-65 1329 0
-1329 1322 65 0
-1323 1330 0
-1322 -65 1330 0
-1330 1323 1322 0
-1330 1323 65 0
-1324 1331 0
-1323 -65 1331 0
-1331 1324 1323 0
-1331 1324 65 0
-1325 1332 0
-1324 -65 1332 0
-1332 1325 1324 0
-1332 1325 65 0
-1326 1333 0
-1325 -65 1333 0
-1333 1326 1325 0
-1333 1326 65 0
-1327 1334 0
-1326 -65 1334 0
-1334 1327 1326 0
-1334 1327 65 0
-1328 1335 0
-1327 -65 1335 0
-1335 1328 1327 0
-1335 1328 65 0
-1329 1336 0
-66 1336 0
-1336 1329 66 0
-1330 1337 0
-1329 -66 1337 0
-1337 1330 1329 0
-1337 1330 66 0
-1331 1338 0
-1330 -66 1338 0
-1338 1331 1330 0
-1338 1331 66 0
-1332 1339 0
-1331 -66 1339 0
-1339 1332 1331 0
-1339 1332 66 0
-1333 1340 0
-1332 -66 1340 0
-1340 1333 1332 0
-1340 1333 66 0
-1334 1341 0
-1333 -66 1341 0
-1341 1334 1333 0
-1341 1334 66 0
-1335 1342 0
-1334 -66 1342 0
-1342 1335 1334 0
-1342 1335 66 0
-1336 1343 0
-67 1343 0
-1343 1336 67 0
-1337 1344 0
-1336 -67 1344 0
-1344 1337 1336 0
-1344 1337 67 0
-1338 1345 0
-1337 -67 1345 0
-1345 1338 1337 0
-1345 1338 67 0
-1339 1346 0
-1338 -67 1346 0
-1346 1339 1338 0
-1346 1339 67 0
-1340 1347 0
-1339 -67 1347 0
-1347 1340 1339 0
-1347 1340 67 0
-1341 1348 0
-1340 -67 1348 0
-1348 1341 1340 0
-1348 1341 67 0
-1342 1349 0
-1341 -67 1349 0
-1349 1342 1341 0
-1349 1342 67 0
-1343 1350 0
-68 1350 0
-1350 1343 68 0
-1344 1351 0
-1343 -68 1351 0
-1351 1344 1343 0
-1351 1344 68 0
-1345 1352 0
-1344 -68 1352 0
-1352 1345 1344 0
-1352 1345 68 0
-1346 1353 0
-1345 -68 1353 0
-1353 1346 1345 0
-1353 1346 68 0
-1347 1354 0
-1346 -68 1354 0
-1354 1347 1346 0
-1354 1347 68 0
-1348 1355 0
-1347 -68 1355 0
-1355 1348 1347 0
-1355 1348 68 0
-1349 1356 0
-1348 -68 1356 0
-1356 1349 1348 0
-1356 1349 68 0
-1350 1357 0
-69 1357 0
-1357 1350 69 0
-1351 1358 0
-1350 -69 1358 0
-1358 1351 1350 0
-1358 1351 69 0
-1352 1359 0
-1351 -69 1359 0
-1359 1352 1351 0
-1359 1352 69 0
-1353 1360 0
-1352 -69 1360 0
-1360 1353 1352 0
-1360 1353 69 0
-1354 1361 0
-1353 -69 1361 0
-1361 1354 1353 0
-1361 1354 69 0
-1355 1362 0
-1354 -69 1362 0
-1362 1355 1354 0
-1362 1355 69 0
-1356 1363 0
-1355 -69 1363 0
-1363 1356 1355 0
-1363 1356 69 0
-1357 1364 0
-70 1364 0
-1364 1357 70 0
-1358 1365 0
-1357 -70 1365 0
-1365 1358 1357 0
-1365 1358 70 0
-1359 1366 0
-1358 -70 1366 0
-1366 1359 1358 0
-1366 1359 70 0
-1360 1367 0
-1359 -70 1367 0
-1367 1360 1359 0
-1367 1360 70 0
-1361 1368 0
-1360 -70 1368 0
-1368 1361 1360 0
-1368 1361 70 0
-1362 1369 0
-1361 -70 1369 0
-1369 1362 1361 0
-1369 1362 70 0
-1363 1370 0
-1362 -70 1370 0
-1370 1363 1362 0
-1370 1363 70 0
-1364 1371 0
-71 1371 0
-1371 1364 71 0
-1365 1372 0
-1364 -71 1372 0
-1372 1365 1364 0
-1372 1365 71 0
-1366 1373 0
-1365 -71 1373 0
-1373 1366 1365 0
-1373 1366 71 0
-1367 1374 0
-1366 -71 1374 0
-1374 1367 1366 0
-1374 1367 71 0
-1368 1375 0
-1367 -71 1375 0
-1375 1368 1367 0
-1375 1368 71 0
-1369 1376 0
-1368 -71 1376 0
-1376 1369 1368 0
-1376 1369 71 0
-1370 1377 0
-1369 -71 1377 0
-1377 1370 1369 0
-1377 1370 71 0
-1371 1378 0
-72 1378 0
-1378 1371 72 0
-1372 1379 0
-1371 -72 1379 0
-1379 1372 1371 0
-1379 1372 72 0
-1373 1380 0
-1372 -72 1380 0
-1380 1373 1372 0
-1380 1373 72 0
-1374 1381 0
-1373 -72 1381 0
-1381 1374 1373 0
-1381 1374 72 0
-1375 1382 0
-1374 -72 1382 0
-1382 1375 1374 0
-1382 1375 72 0
-1376 1383 0
-1375 -72 1383 0
-1383 1376 1375 0
-1383 1376 72 0
-1377 1384 0
-1376 -72 1384 0
-1384 1377 1376 0
-1384 1377 72 0
-1378 1385 0
-73 1385 0
-1385 1378 73 0
-1379 1386 0
-1378 -73 1386 0
-1386 1379 1378 0
-1386 1379 73 0
-1380 1387 0
-1379 -73 1387 0
-1387 1380 1379 0
-1387 1380 73 0
-1381 1388 0
-1380 -73 1388 0
-1388 1381 1380 0
-1388 1381 73 0
-1382 1389 0
-1381 -73 1389 0
-1389 1382 1381 0
-1389 1382 73 0
-1383 1390 0
-1382 -73 1390 0
-1390 1383 1382 0
-1390 1383 73 0
-1384 1391 0
-1383 -73 1391 0
-1391 1384 1383 0
-1391 1384 73 0
-1385 1392 0
-74 1392 0
-1392 1385 74 0
-1386 1393 0
-1385 -74 1393 0
-1393 1386 1385 0
-1393 1386 74 0
-1387 1394 0
-1386 -74 1394 0
-1394 1387 1386 0
-1394 1387 74 0
-1388 1395 0
-1387 -74 1395 0
-1395 1388 1387 0
-1395 1388 74 0
-1389 1396 0
-1388 -74 1396 0
-1396 1389 1388 0
-1396 1389 74 0
-1390 1397 0
-1389 -74 1397 0
-1397 1390 1389 0
-1397 1390 74 0
-1391 1398 0
-1390 -74 1398 0
-1398 1391 1390 0
-1398 1391 74 0
-1392 1399 0
-75 1399 0
-1399 1392 75 0
-1393 1400 0
-1392 -75 1400 0
-1400 1393 1392 0
-1400 1393 75 0
-1394 1401 0
-1393 -75 1401 0
-1401 1394 1393 0
-1401 1394 75 0
-1395 1402 0
-1394 -75 1402 0
-1402 1395 1394 0
-1402 1395 75 0
-1396 1403 0
-1395 -75 1403 0
-1403 1396 1395 0
-1403 1396 75 0
-1397 1404 0
-1396 -75 1404 0
-1404 1397 1396 0
-1404 1397 75 0
-1398 1405 0
-1397 -75 1405 0
-1405 1398 1397 0
-1405 1398 75 0
-1399 1406 0
-76 1406 0
-1406 1399 76 0
-1400 1407 0
-1399 -76 1407 0
-1407 1400 1399 0
-1407 1400 76 0
-1401 1408 0
-1400 -76 1408 0
-1408 1401 1400 0
-1408 1401 76 0
-1402 1409 0
-1401 -76 1409 0
-1409 1402 1401 0
-1409 1402 76 0
-1403 1410 0
-1402 -76 1410 0
-1410 1403 1402 0
-1410 1403 76 0
-1404 1411 0
-1403 -76 1411 0
-1411 1404 1403 0
-1411 1404 76 0
-1405 1412 0
-1404 -76 1412 0
-1412 1405 1404 0
-1412 1405 76 0
-1406 1413 0
-77 1413 0
-1413 1406 77 0
-1407 1414 0
-1406 -77 1414 0
-1414 1407 1406 0
-1414 1407 77 0
-1408 1415 0
-1407 -77 1415 0
-1415 1408 1407 0
-1415 1408 77 0
-1409 1416 0
-1408 -77 1416 0
-1416 1409 1408 0
-1416 1409 77 0
-1410 1417 0
-1409 -77 1417 0
-1417 1410 1409 0
-1417 1410 77 0
-1411 1418 0
-1410 -77 1418 0
-1418 1411 1410 0
-1418 1411 77 0
-1412 1419 0
-1411 -77 1419 0
-1419 1412 1411 0
-1419 1412 77 0
-1413 1420 0
-78 1420 0
-1420 1413 78 0
-1414 1421 0
-1413 -78 1421 0
-1421 1414 1413 0
-1421 1414 78 0
-1415 1422 0
-1414 -78 1422 0
-1422 1415 1414 0
-1422 1415 78 0
-1416 1423 0
-1415 -78 1423 0
-1423 1416 1415 0
-1423 1416 78 0
-1417 1424 0
-1416 -78 1424 0
-1424 1417 1416 0
-1424 1417 78 0
-1418 1425 0
-1417 -78 1425 0
-1425 1418 1417 0
-1425 1418 78 0
-1419 1426 0
-1418 -78 1426 0
-1426 1419 1418 0
-1426 1419 78 0
-1420 1427 0
-79 1427 0
-1427 1420 79 0
-1421 1428 0
-1420 -79 1428 0
-1428 1421 1420 0
-1428 1421 79 0
-1422 1429 0
-1421 -79 1429 0
-1429 1422 1421 0
-1429 1422 79 0
-1423 1430 0
-1422 -79 1430 0
-1430 1423 1422 0
-1430 1423 79 0
-1424 1431 0
-1423 -79 1431 0
-1431 1424 1423 0
-1431 1424 79 0
-1425 1432 0
-1424 -79 1432 0
-1432 1425 1424 0
-1432 1425 79 0
-1426 1433 0
-1425 -79 1433 0
-1433 1426 1425 0
-1433 1426 79 0
-1427 1434 0
-80 1434 0
-1434 1427 80 0
-1428 1435 0
-1427 -80 1435 0
-1435 1428 1427 0
-1435 1428 80 0
-1429 1436 0
-1428 -80 1436 0
-1436 1429 1428 0
-1436 1429 80 0
-1430 1437 0
-1429 -80 1437 0
-1437 1430 1429 0
-1437 1430 80 0
-1431 1438 0
-1430 -80 1438 0
-1438 1431 1430 0
-1438 1431 80 0
-1432 1439 0
-1431 -80 1439 0
-1439 1432 1431 0
-1439 1432 80 0
-1433 1440 0
-1432 -80 1440 0
-1440 1433 1432 0
-1440 1433 80 0
-1434 1441 0
-81 1441 0
-1441 1434 81 0
-1435 1442 0
-1434 -81 1442 0
-1442 1435 1434 0
-1442 1435 81 0
-1436 1443 0
-1435 -81 1443 0
-1443 1436 1435 0
-1443 1436 81 0
-1437 1444 0
-1436 -81 1444 0
-1444 1437 1436 0
-1444 1437 81 0
-1438 1445 0
-1437 -81 1445 0
-1445 1438 1437 0
-1445 1438 81 0
-1439 1446 0
-1438 -81 1446 0
-1446 1439 1438 0
-1446 1439 81 0
-1440 1447 0
-1439 -81 1447 0
-1447 1440 1439 0
-1447 1440 81 0
-1441 1448 0
-82 1448 0
-1448 1441 82 0
-1442 1449 0
-1441 -82 1449 0
-1449 1442 1441 0
-1449 1442 82 0
-1443 1450 0
-1442 -82 1450 0
-1450 1443 1442 0
-1450 1443 82 0
-1444 1451 0
-1443 -82 1451 0
-1451 1444 1443 0
-1451 1444 82 0
-1445 1452 0
-1444 -82 1452 0
-1452 1445 1444 0
-1452 1445 82 0
-1446 1453 0
-1445 -82 1453 0
-1453 1446 1445 0
-1453 1446 82 0
-1447 1454 0
-1446 -82 1454 0
-1454 1447 1446 0
-1454 1447 82 0
-1448 1455 0
-83 1455 0
-1455 1448 83 0
-1449 1456 0
-1448 -83 1456 0
-1456 1449 1448 0
-1456 1449 83 0
-1450 1457 0
-1449 -83 1457 0
-1457 1450 1449 0
-1457 1450 83 0
-1451 1458 0
-1450 -83 1458 0
-1458 1451 1450 0
-1458 1451 83 0
-1452 1459 0
-1451 -83 1459 0
-1459 1452 1451 0
-1459 1452 83 0
-1453 1460 0
-1452 -83 1460 0
-1460 1453 1452 0
-1460 1453 83 0
-1454 1461 0
-1453 -83 1461 0
-1461 1454 1453 0
-1461 1454 83 0
-1455 1462 0
-84 1462 0
-1462 1455 84 0
-1456 1463 0
-1455 -84 1463 0
-1463 1456 1455 0
-1463 1456 84 0
-1457 1464 0
-1456 -84 1464 0
-1464 1457 1456 0
-1464 1457 84 0
-1458 1465 0
-1457 -84 1465 0
-1465 1458 1457 0
-1465 1458 84 0
-1459 1466 0
-1458 -84 1466 0
-1466 1459 1458 0
-1466 1459 84 0
-1460 1467 0
-1459 -84 1467 0
-1467 1460 1459 0
-1467 1460 84 0
-1461 1468 0
-1460 -84 1468 0
-1468 1461 1460 0
-1468 1461 84 0
-1462 1469 0
-85 1469 0
-1469 1462 85 0
-1463 1470 0
-1462 -85 1470 0
-1470 1463 1462 0
-1470 1463 85 0
-1464 1471 0
-1463 -85 1471 0
-1471 1464 1463 0
-1471 1464 85 0
-1465 1472 0
-1464 -85 1472 0
-1472 1465 1464 0
-1472 1465 85 0
-1466 1473 0
-1465 -85 1473 0
-1473 1466 1465 0
-1473 1466 85 0
-1467 1474 0
-1466 -85 1474 0
-1474 1467 1466 0
-1474 1467 85 0
-1468 1475 0
-1467 -85 1475 0
-1475 1468 1467 0
-1475 1468 85 0
-1469 1476 0
-86 1476 0
-1476 1469 86 0
-1470 1477 0
-1469 -86 1477 0
-1477 1470 1469 0
-1477 1470 86 0
-1471 1478 0
-1470 -86 1478 0
-1478 1471 1470 0
-1478 1471 86 0
-1472 1479 0
-1471 -86 1479 0
-1479 1472 1471 0
-1479 1472 86 0
-1473 1480 0
-1472 -86 1480 0
-1480 1473 1472 0
-1480 1473 86 0
-1474 1481 0
-1473 -86 1481 0
-1481 1474 1473 0
-1481 1474 86 0
-1475 1482 0
-1474 -86 1482 0
-1482 1475 1474 0
-1482 1475 86 0
-1476 1483 0
-87 1483 0
-1483 1476 87 0
-1477 1484 0
-1476 -87 1484 0
-1484 1477 1476 0
-1484 1477 87 0
-1478 1485 0
-1477 -87 1485 0
-1485 1478 1477 0
-1485 1478 87 0
-1479 1486 0
-1478 -87 1486 0
-1486 1479 1478 0
-1486 1479 87 0
-1480 1487 0
-1479 -87 1487 0
-1487 1480 1479 0
-1487 1480 87 0
-1481 1488 0
-1480 -87 1488 0
-1488 1481 1480 0
-1488 1481 87 0
-1482 1489 0
-1481 -87 1489 0
-1489 1482 1481 0
-1489 1482 87 0
-1483 1490 0
-88 1490 0
-1490 1483 88 0
-1484 1491 0
-1483 -88 1491 0
-1491 1484 1483 0
-1491 1484 88 0
-1485 1492 0
-1484 -88 1492 0
-1492 1485 1484 0
-1492 1485 88 0
-1486 1493 0
-1485 -88 1493 0
-1493 1486 1485 0
-1493 1486 88 0
-1487 1494 0
-1486 -88 1494 0
-1494 1487 1486 0
-1494 1487 88 0
-1488 1495 0
-1487 -88 1495 0
-1495 1488 1487 0
-1495 1488 88 0
-1489 1496 0
-1488 -88 1496 0
-1496 1489 1488 0
-1496 1489 88 0
-1490 1497 0
-89 1497 0
-1497 1490 89 0
-1491 1498 0
-1490 -89 1498 0
-1498 1491 1490 0
-1498 1491 89 0
-1492 1499 0
-1491 -89 1499 0
-1499 1492 1491 0
-1499 1492 89 0
-1493 1500 0
-1492 -89 1500 0
-1500 1493 1492 0
-1500 1493 89 0
-1494 1501 0
-1493 -89 1501 0
-1501 1494 1493 0
-1501 1494 89 0
-1495 1502 0
-1494 -89 1502 0
-1502 1495 1494 0
-1502 1495 89 0
-1496 1503 0
-1495 -89 1503 0
-1503 1496 1495 0
-1503 1496 89 0
-1497 1504 0
-90 1504 0
-1504 1497 90 0
-1498 1505 0
-1497 -90 1505 0
-1505 1498 1497 0
-1505 1498 90 0
-1499 1506 0
-1498 -90 1506 0
-1506 1499 1498 0
-1506 1499 90 0
-1500 1507 0
-1499 -90 1507 0
-1507 1500 1499 0
-1507 1500 90 0
-1501 1508 0
-1500 -90 1508 0
-1508 1501 1500 0
-1508 1501 90 0
-1502 1509 0
-1501 -90 1509 0
-1509 1502 1501 0
-1509 1502 90 0
-1503 1510 0
-1502 -90 1510 0
-1510 1503 1502 0
-1510 1503 90 0
-1504 1511 0
-91 1511 0
-1511 1504 91 0
-1505 1512 0
-1504 -91 1512 0
-1512 1505 1504 0
-1512 1505 91 0
-1506 1513 0
-1505 -91 1513 0
-1513 1506 1505 0
-1513 1506 91 0
-1507 1514 0
-1506 -91 1514 0
-1514 1507 1506 0
-1514 1507 91 0
-1508 1515 0
-1507 -91 1515 0
-1515 1508 1507 0
-1515 1508 91 0
-1509 1516 0
-1508 -91 1516 0
-1516 1509 1508 0
-1516 1509 91 0
-1510 1517 0
-1509 -91 1517 0
-1517 1510 1509 0
-1517 1510 91 0
-1511 1518 0
-92 1518 0
-1518 1511 92 0
-1512 1519 0
-1511 -92 1519 0
-1519 1512 1511 0
-1519 1512 92 0
-1513 1520 0
-1512 -92 1520 0
-1520 1513 1512 0
-1520 1513 92 0
-1514 1521 0
-1513 -92 1521 0
-1521 1514 1513 0
-1521 1514 92 0
-1515 1522 0
-1514 -92 1522 0
-1522 1515 1514 0
-1522 1515 92 0
-1516 1523 0
-1515 -92 1523 0
-1523 1516 1515 0
-1523 1516 92 0
-1517 1524 0
-1516 -92 1524 0
-1524 1517 1516 0
-1524 1517 92 0
-1518 1525 0
-93 1525 0
-1525 1518 93 0
-1519 1526 0
-1518 -93 1526 0
-1526 1519 1518 0
-1526 1519 93 0
-1520 1527 0
-1519 -93 1527 0
-1527 1520 1519 0
-1527 1520 93 0
-1521 1528 0
-1520 -93 1528 0
-1528 1521 1520 0
-1528 1521 93 0
-1522 1529 0
-1521 -93 1529 0
-1529 1522 1521 0
-1529 1522 93 0
-1523 1530 0
-1522 -93 1530 0
-1530 1523 1522 0
-1530 1523 93 0
-1524 1531 0
-1523 -93 1531 0
-1531 1524 1523 0
-1531 1524 93 0
-1525 1532 0
-94 1532 0
-1532 1525 94 0
-1526 1533 0
-1525 -94 1533 0
-1533 1526 1525 0
-1533 1526 94 0
-1527 1534 0
-1526 -94 1534 0
-1534 1527 1526 0
-1534 1527 94 0
-1528 1535 0
-1527 -94 1535 0
-1535 1528 1527 0
-1535 1528 94 0
-1529 1536 0
-1528 -94 1536 0
-1536 1529 1528 0
-1536 1529 94 0
-1530 1537 0
-1529 -94 1537 0
-1537 1530 1529 0
-1537 1530 94 0
-1531 1538 0
-1530 -94 1538 0
-1538 1531 1530 0
-1538 1531 94 0
-1532 1539 0
-95 1539 0
-1539 1532 95 0
-1533 1540 0
-1532 -95 1540 0
-1540 1533 1532 0
-1540 1533 95 0
-1534 1541 0
-1533 -95 1541 0
-1541 1534 1533 0
-1541 1534 95 0
-1535 1542 0
-1534 -95 1542 0
-1542 1535 1534 0
-1542 1535 95 0
-1536 1543 0
-1535 -95 1543 0
-1543 1536 1535 0
-1543 1536 95 0
-1537 1544 0
-1536 -95 1544 0
-1544 1537 1536 0
-1544 1537 95 0
-1538 1545 0
-1537 -95 1545 0
-1545 1538 1537 0
-1545 1538 95 0
-1539 1546 0
-96 1546 0
-1546 1539 96 0
-1540 1547 0
-1539 -96 1547 0
-1547 1540 1539 0
-1547 1540 96 0
-1541 1548 0
-1540 -96 1548 0
-1548 1541 1540 0
-1548 1541 96 0
-1542 1549 0
-1541 -96 1549 0
-1549 1542 1541 0
-1549 1542 96 0
-1543 1550 0
-1542 -96 1550 0
-1550 1543 1542 0
-1550 1543 96 0
-1544 1551 0
-1543 -96 1551 0
-1551 1544 1543 0
-1551 1544 96 0
-1545 1552 0
-1544 -96 1552 0
-1552 1545 1544 0
-1552 1545 96 0
-1546 1553 0
-97 1553 0
-1553 1546 97 0
-1547 1554 0
-1546 -97 1554 0
-1554 1547 1546 0
-1554 1547 97 0
-1548 1555 0
-1547 -97 1555 0
-1555 1548 1547 0
-1555 1548 97 0
-1549 1556 0
-1548 -97 1556 0
-1556 1549 1548 0
-1556 1549 97 0
-1550 1557 0
-1549 -97 1557 0
-1557 1550 1549 0
-1557 1550 97 0
-1551 1558 0
-1550 -97 1558 0
-1558 1551 1550 0
-1558 1551 97 0
-1552 1559 0
-1551 -97 1559 0
-1559 1552 1551 0
-1559 1552 97 0
-1553 1560 0
-98 1560 0
-1560 1553 98 0
-1554 1561 0
-1553 -98 1561 0
-1561 1554 1553 0
-1561 1554 98 0
-1555 1562 0
-1554 -98 1562 0
-1562 1555 1554 0
-1562 1555 98 0
-1556 1563 0
-1555 -98 1563 0
-1563 1556 1555 0
-1563 1556 98 0
-1557 1564 0
-1556 -98 1564 0
-1564 1557 1556 0
-1564 1557 98 0
-1558 1565 0
-1557 -98 1565 0
-1565 1558 1557 0
-1565 1558 98 0
-1559 1566 0
-1558 -98 1566 0
-1566 1559 1558 0
-1566 1559 98 0
-1560 1567 0
-99 1567 0
-1567 1560 99 0
-1561 1568 0
-1560 -99 1568 0
-1568 1561 1560 0
-1568 1561 99 0
-1562 1569 0
-1561 -99 1569 0
-1569 1562 1561 0
-1569 1562 99 0
-1563 1570 0
-1562 -99 1570 0
-1570 1563 1562 0
-1570 1563 99 0
-1564 1571 0
-1563 -99 1571 0
-1571 1564 1563 0
-1571 1564 99 0
-1565 1572 0
-1564 -99 1572 0
-1572 1565 1564 0
-1572 1565 99 0
-1566 1573 0
-1565 -99 1573 0
-1573 1566 1565 0
-1573 1566 99 0
-1567 1574 0
-100 1574 0
-1574 1567 100 0
-1568 1575 0
-1567 -100 1575 0
-1575 1568 1567 0
-1575 1568 100 0
-1569 1576 0
-1568 -100 1576 0
-1576 1569 1568 0
-1576 1569 100 0
-1570 1577 0
-1569 -100 1577 0
-1577 1570 1569 0
-1577 1570 100 0
-1571 1578 0
-1570 -100 1578 0
-1578 1571 1570 0
-1578 1571 100 0
-1572 1579 0
-1571 -100 1579 0
-1579 1572 1571 0
-1579 1572 100 0
-1573 1580 0
-1572 -100 1580 0
-1580 1573 1572 0
-1580 1573 100 0
-1574 1581 0
-101 1581 0
-1581 1574 101 0
-1575 1582 0
-1574 -101 1582 0
-1582 1575 1574 0
-1582 1575 101 0
-1576 1583 0
-1575 -101 1583 0
-1583 1576 1575 0
-1583 1576 101 0
-1577 1584 0
-1576 -101 1584 0
-1584 1577 1576 0
-1584 1577 101 0
-1578 1585 0
-1577 -101 1585 0
-1585 1578 1577 0
-1585 1578 101 0
-1579 1586 0
-1578 -101 1586 0
-1586 1579 1578 0
-1586 1579 101 0
-1580 1587 0
-1579 -101 1587 0
-1587 1580 1579 0
-1587 1580 101 0
-1581 1588 0
-102 1588 0
-1588 1581 102 0
-1582 1589 0
-1581 -102 1589 0
-1589 1582 1581 0
-1589 1582 102 0
-1583 1590 0
-1582 -102 1590 0
-1590 1583 1582 0
-1590 1583 102 0
-1584 1591 0
-1583 -102 1591 0
-1591 1584 1583 0
-1591 1584 102 0
-1585 1592 0
-1584 -102 1592 0
-1592 1585 1584 0
-1592 1585 102 0
-1586 1593 0
-1585 -102 1593 0
-1593 1586 1585 0
-1593 1586 102 0
-1587 1594 0
-1586 -102 1594 0
-1594 1587 1586 0
-1594 1587 102 0
-1588 1595 0
-103 1595 0
-1595 1588 103 0
-1589 1596 0
-1588 -103 1596 0
-1596 1589 1588 0
-1596 1589 103 0
-1590 1597 0
-1589 -103 1597 0
-1597 1590 1589 0
-1597 1590 103 0
-1591 1598 0
-1590 -103 1598 0
-1598 1591 1590 0
-1598 1591 103 0
-1592 1599 0
-1591 -103 1599 0
-1599 1592 1591 0
-1599 1592 103 0
-1593 1600 0
-1592 -103 1600 0
-1600 1593 1592 0
-1600 1593 103 0
-1594 1601 0
-1593 -103 1601 0
-1601 1594 1593 0
-1601 1594 103 0
-1595 1602 0
-104 1602 0
-1602 1595 104 0
-1596 1603 0
-1595 -104 1603 0
-1603 1596 1595 0
-1603 1596 104 0
-1597 1604 0
-1596 -104 1604 0
-1604 1597 1596 0
-1604 1597 104 0
-1598 1605 0
-1597 -104 1605 0
-1605 1598 1597 0
-1605 1598 104 0
-1599 1606 0
-1598 -104 1606 0
-1606 1599 1598 0
-1606 1599 104 0
-1600 1607 0
-1599 -104 1607 0
-1607 1600 1599 0
-1607 1600 104 0
-1601 1608 0
-1600 -104 1608 0
-1608 1601 1600 0
-1608 1601 104 0
-1602 1609 0
-105 1609 0
-1609 1602 105 0
-1603 1610 0
-1602 -105 1610 0
-1610 1603 1602 0
-1610 1603 105 0
-1604 1611 0
-1603 -105 1611 0
-1611 1604 1603 0
-1611 1604 105 0
-1605 1612 0
-1604 -105 1612 0
-1612 1605 1604 0
-1612 1605 105 0
-1606 1613 0
-1605 -105 1613 0
-1613 1606 1605 0
-1613 1606 105 0
-1607 1614 0
-1606 -105 1614 0
-1614 1607 1606 0
-1614 1607 105 0
-1608 1615 0
-1607 -105 1615 0
-1615 1608 1607 0
-1615 1608 105 0
-1609 1616 0
-106 1616 0
-1616 1609 106 0
-1610 1617 0
-1609 -106 1617 0
-1617 1610 1609 0
-1617 1610 106 0
-1611 1618 0
-1610 -106 1618 0
-1618 1611 1610 0
-1618 1611 106 0
-1612 1619 0
-1611 -106 1619 0
-1619 1612 1611 0
-1619 1612 106 0
-1613 1620 0
-1612 -106 1620 0
-1620 1613 1612 0
-1620 1613 106 0
-1614 1621 0
-1613 -106 1621 0
-1621 1614 1613 0
-1621 1614 106 0
-1615 1622 0
-1614 -106 1622 0
-1622 1615 1614 0
-1622 1615 106 0
-1616 1623 0
-107 1623 0
-1623 1616 107 0
-1617 1624 0
-1616 -107 1624 0
-1624 1617 1616 0
-1624 1617 107 0
-1618 1625 0
-1617 -107 1625 0
-1625 1618 1617 0
-1625 1618 107 0
-1619 1626 0
-1618 -107 1626 0
-1626 1619 1618 0
-1626 1619 107 0
-1620 1627 0
-1619 -107 1627 0
-1627 1620 1619 0
-1627 1620 107 0
-1621 1628 0
-1620 -107 1628 0
-1628 1621 1620 0
-1628 1621 107 0
-1622 1629 0
-1621 -107 1629 0
-1629 1622 1621 0
-1629 1622 107 0
-1623 1630 0
-108 1630 0
-1630 1623 108 0
-1624 1631 0
-1623 -108 1631 0
-1631 1624 1623 0
-1631 1624 108 0
-1625 1632 0
-1624 -108 1632 0
-1632 1625 1624 0
-1632 1625 108 0
-1626 1633 0
-1625 -108 1633 0
-1633 1626 1625 0
-1633 1626 108 0
-1627 1634 0
-1626 -108 1634 0
-1634 1627 1626 0
-1634 1627 108 0
-1628 1635 0
-1627 -108 1635 0
-1635 1628 1627 0
-1635 1628 108 0
-1629 1636 0
-1628 -108 1636 0
-1636 1629 1628 0
-1636 1629 108 0
-1630 1637 0
-109 1637 0
-1637 1630 109 0
-1631 1638 0
-1630 -109 1638 0
-1638 1631 1630 0
-1638 1631 109 0
-1632 1639 0
-1631 -109 1639 0
-1639 1632 1631 0
-1639 1632 109 0
-1633 1640 0
-1632 -109 1640 0
-1640 1633 1632 0
-1640 1633 109 0
-1634 1641 0
-1633 -109 1641 0
-1641 1634 1633 0
-1641 1634 109 0
-1635 1642 0
-1634 -109 1642 0
-1642 1635 1634 0
-1642 1635 109 0
-1636 1643 0
-1635 -109 1643 0
-1643 1636 1635 0
-1643 1636 109 0
-1637 1644 0
-110 1644 0
-1644 1637 110 0
-1638 1645 0
-1637 -110 1645 0
-1645 1638 1637 0
-1645 1638 110 0
-1639 1646 0
-1638 -110 1646 0
-1646 1639 1638 0
-1646 1639 110 0
-1640 1647 0
-1639 -110 1647 0
-1647 1640 1639 0
-1647 1640 110 0
-1641 1648 0
-1640 -110 1648 0
-1648 1641 1640 0
-1648 1641 110 0
-1642 1649 0
-1641 -110 1649 0
-1649 1642 1641 0
-1649 1642 110 0
-1643 1650 0
-1642 -110 1650 0
-1650 1643 1642 0
-1650 1643 110 0
-1644 1651 0
-111 1651 0
-1651 1644 111 0
-1645 1652 0
-1644 -111 1652 0
-1652 1645 1644 0
-1652 1645 111 0
-1646 1653 0
-1645 -111 1653 0
-1653 1646 1645 0
-1653 1646 111 0
-1647 1654 0
-1646 -111 1654 0
-1654 1647 1646 0
-1654 1647 111 0
-1648 1655 0
-1647 -111 1655 0
-1655 1648 1647 0
-1655 1648 111 0
-1649 1656 0
-1648 -111 1656 0
-1656 1649 1648 0
-1656 1649 111 0
-1650 1657 0
-1649 -111 1657 0
-1657 1650 1649 0
-1657 1650 111 0
-1651 1658 0
-112 1658 0
-1658 1651 112 0
-1652 1659 0
-1651 -112 1659 0
-1659 1652 1651 0
-1659 1652 112 0
-1653 1660 0
-1652 -112 1660 0
-1660 1653 1652 0
-1660 1653 112 0
-1654 1661 0
-1653 -112 1661 0
-1661 1654 1653 0
-1661 1654 112 0
-1655 1662 0
-1654 -112 1662 0
-1662 1655 1654 0
-1662 1655 112 0
-1656 1663 0
-1655 -112 1663 0
-1663 1656 1655 0
-1663 1656 112 0
-1657 1664 0
-1656 -112 1664 0
-1664 1657 1656 0
-1664 1657 112 0
-1658 1665 0
-113 1665 0
-1665 1658 113 0
-1659 1666 0
-1658 -113 1666 0
-1666 1659 1658 0
-1666 1659 113 0
-1660 1667 0
-1659 -113 1667 0
-1667 1660 1659 0
-1667 1660 113 0
-1661 1668 0
-1660 -113 1668 0
-1668 1661 1660 0
-1668 1661 113 0
-1662 1669 0
-1661 -113 1669 0
-1669 1662 1661 0
-1669 1662 113 0
-1663 1670 0
-1662 -113 1670 0
-1670 1663 1662 0
-1670 1663 113 0
-1664 1671 0
-1663 -113 1671 0
-1671 1664 1663 0
-1671 1664 113 0
-1665 1672 0
-114 1672 0
-1672 1665 114 0
-1666 1673 0
-1665 -114 1673 0
-1673 1666 1665 0
-1673 1666 114 0
-1667 1674 0
-1666 -114 1674 0
-1674 1667 1666 0
-1674 1667 114 0
-1668 1675 0
-1667 -114 1675 0
-1675 1668 1667 0
-1675 1668 114 0
-1669 1676 0
-1668 -114 1676 0
-1676 1669 1668 0
-1676 1669 114 0
-1670 1677 0
-1669 -114 1677 0
-1677 1670 1669 0
-1677 1670 114 0
-1671 1678 0
-1670 -114 1678 0
-1678 1671 1670 0
-1678 1671 114 0
-1672 1679 0
-115 1679 0
-1679 1672 115 0
-1673 1680 0
-1672 -115 1680 0
-1680 1673 1672 0
-1680 1673 115 0
-1674 1681 0
-1673 -115 1681 0
-1681 1674 1673 0
-1681 1674 115 0
-1675 1682 0
-1674 -115 1682 0
-1682 1675 1674 0
-1682 1675 115 0
-1676 1683 0
-1675 -115 1683 0
-1683 1676 1675 0
-1683 1676 115 0
-1677 1684 0
-1676 -115 1684 0
-1684 1677 1676 0
-1684 1677 115 0
-1678 1685 0
-1677 -115 1685 0
-1685 1678 1677 0
-1685 1678 115 0
-1679 1686 0
-116 1686 0
-1686 1679 116 0
-1680 1687 0
-1679 -116 1687 0
-1687 1680 1679 0
-1687 1680 116 0
-1681 1688 0
-1680 -116 1688 0
-1688 1681 1680 0
-1688 1681 116 0
-1682 1689 0
-1681 -116 1689 0
-1689 1682 1681 0
-1689 1682 116 0
-1683 1690 0
-1682 -116 1690 0
-1690 1683 1682 0
-1690 1683 116 0
-1684 1691 0
-1683 -116 1691 0
-1691 1684 1683 0
-1691 1684 116 0
-1685 1692 0
-1684 -116 1692 0
-1692 1685 1684 0
-1692 1685 116 0
-1686 1693 0
-117 1693 0
-1693 1686 117 0
-1687 1694 0
-1686 -117 1694 0
-1694 1687 1686 0
-1694 1687 117 0
-1688 1695 0
-1687 -117 1695 0
-1695 1688 1687 0
-1695 1688 117 0
-1689 1696 0
-1688 -117 1696 0
-1696 1689 1688 0
-1696 1689 117 0
-1690 1697 0
-1689 -117 1697 0
-1697 1690 1689 0
-1697 1690 117 0
-1691 1698 0
-1690 -117 1698 0
-1698 1691 1690 0
-1698 1691 117 0
-1692 1699 0
-1691 -117 1699 0
-1699 1692 1691 0
-1699 1692 117 0
-1693 1700 0
-118 1700 0
-1700 1693 118 0
-1694 1701 0
-1693 -118 1701 0
-1701 1694 1693 0
-1701 1694 118 0
-1695 1702 0
-1694 -118 1702 0
-1702 1695 1694 0
-1702 1695 118 0
-1696 1703 0
-1695 -118 1703 0
-1703 1696 1695 0
-1703 1696 118 0
-1697 1704 0
-1696 -118 1704 0
-1704 1697 1696 0
-1704 1697 118 0
-1698 1705 0
-1697 -118 1705 0
-1705 1698 1697 0
-1705 1698 118 0
-1699 1706 0
-1698 -118 1706 0
-1706 1699 1698 0
-1706 1699 118 0
-1700 1707 0
-119 1707 0
-1707 1700 119 0
-1701 1708 0
-1700 -119 1708 0
-1708 1701 1700 0
-1708 1701 119 0
-1702 1709 0
-1701 -119 1709 0
-1709 1702 1701 0
-1709 1702 119 0
-1703 1710 0
-1702 -119 1710 0
-1710 1703 1702 0
-1710 1703 119 0
-1704 1711 0
-1703 -119 1711 0
-1711 1704 1703 0
-1711 1704 119 0
-1705 1712 0
-1704 -119 1712 0
-1712 1705 1704 0
-1712 1705 119 0
-1706 1713 0
-1705 -119 1713 0
-1713 1706 1705 0
-1713 1706 119 0
-1707 1714 0
-120 1714 0
-1714 1707 120 0
-1708 1715 0
-1707 -120 1715 0
-1715 1708 1707 0
-1715 1708 120 0
-1709 1716 0
-1708 -120 1716 0
-1716 1709 1708 0
-1716 1709 120 0
-1710 1717 0
-1709 -120 1717 0
-1717 1710 1709 0
-1717 1710 120 0
-1711 1718 0
-1710 -120 1718 0
-1718 1711 1710 0
-1718 1711 120 0
-1712 1719 0
-1711 -120 1719 0
-1719 1712 1711 0
-1719 1712 120 0
-1713 1720 0
-1712 -120 1720 0
-1720 1713 1712 0
-1720 1713 120 0
-1714 1721 0
-121 1721 0
-1721 1714 121 0
-1715 1722 0
-1714 -121 1722 0
-1722 1715 1714 0
-1722 1715 121 0
-1716 1723 0
-1715 -121 1723 0
-1723 1716 1715 0
-1723 1716 121 0
-1717 1724 0
-1716 -121 1724 0
-1724 1717 1716 0
-1724 1717 121 0
-1718 1725 0
-1717 -121 1725 0
-1725 1718 1717 0
-1725 1718 121 0
-1719 1726 0
-1718 -121 1726 0
-1726 1719 1718 0
-1726 1719 121 0
-1720 1727 0
-1719 -121 1727 0
-1727 1720 1719 0
-1727 1720 121 0
-1721 1728 0
-122 1728 0
-1728 1721 122 0
-1722 1729 0
-1721 -122 1729 0
-1729 1722 1721 0
-1729 1722 122 0
-1723 1730 0
-1722 -122 1730 0
-1730 1723 1722 0
-1730 1723 122 0
-1724 1731 0
-1723 -122 1731 0
-1731 1724 1723 0
-1731 1724 122 0
-1725 1732 0
-1724 -122 1732 0
-1732 1725 1724 0
-1732 1725 122 0
-1726 1733 0
-1725 -122 1733 0
-1733 1726 1725 0
-1733 1726 122 0
-1727 1734 0
-1726 -122 1734 0
-1734 1727 1726 0
-1734 1727 122 0
-1728 1735 0
-123 1735 0
-1735 1728 123 0
-1729 1736 0
-1728 -123 1736 0
-1736 1729 1728 0
-1736 1729 123 0
-1730 1737 0
-1729 -123 1737 0
-1737 1730 1729 0
-1737 1730 123 0
-1731 1738 0
-1730 -123 1738 0
-1738 1731 1730 0
-1738 1731 123 0
-1732 1739 0
-1731 -123 1739 0
-1739 1732 1731 0
-1739 1732 123 0
-1733 1740 0
-1732 -123 1740 0
-1740 1733 1732 0
-1740 1733 123 0
-1734 1741 0
-1733 -123 1741 0
-1741 1734 1733 0
-1741 1734 123 0
-1735 1742 0
-124 1742 0
-1742 1735 124 0
-1736 1743 0
-1735 -124 1743 0
-1743 1736 1735 0
-1743 1736 124 0
-1737 1744 0
-1736 -124 1744 0
-1744 1737 1736 0
-1744 1737 124 0
-1738 1745 0
-1737 -124 1745 0
-1745 1738 1737 0
-1745 1738 124 0
-1739 1746 0
-1738 -124 1746 0
-1746 1739 1738 0
-1746 1739 124 0
-1740 1747 0
-1739 -124 1747 0
-1747 1740 1739 0
-1747 1740 124 0
-1741 1748 0
-1740 -124 1748 0
-1748 1741 1740 0
-1748 1741 124 0
-1742 1749 0
-125 1749 0
-1749 1742 125 0
-1743 1750 0
-1742 -125 1750 0
-1750 1743 1742 0
-1750 1743 125 0
-1744 1751 0
-1743 -125 1751 0
-1751 1744 1743 0
-1751 1744 125 0
-1745 1752 0
-1744 -125 1752 0
-1752 1745 1744 0
-1752 1745 125 0
-1746 1753 0
-1745 -125 1753 0
-1753 1746 1745 0
-1753 1746 125 0
-1747 1754 0
-1746 -125 1754 0
-1754 1747 1746 0
-1754 1747 125 0
-1748 1755 0
-1747 -125 1755 0
-1755 1748 1747 0
-1755 1748 125 0
-1749 1756 0
-126 1756 0
-1756 1749 126 0
-1750 1757 0
-1749 -126 1757 0
-1757 1750 1749 0
-1757 1750 126 0
-1751 1758 0
-1750 -126 1758 0
-1758 1751 1750 0
-1758 1751 126 0
-1752 1759 0
-1751 -126 1759 0
-1759 1752 1751 0
-1759 1752 126 0
-1753 1760 0
-1752 -126 1760 0
-1760 1753 1752 0
-1760 1753 126 0
-1754 1761 0
-1753 -126 1761 0
-1761 1754 1753 0
-1761 1754 126 0
-1755 1762 0
-1754 -126 1762 0
-1762 1755 1754 0
-1762 1755 126 0
-1756 1763 0
-127 1763 0
-1763 1756 127 0
-1757 1764 0
-1756 -127 1764 0
-1764 1757 1756 0
-1764 1757 127 0
-1758 1765 0
-1757 -127 1765 0
-1765 1758 1757 0
-1765 1758 127 0
-1759 1766 0
-1758 -127 1766 0
-1766 1759 1758 0
-1766 1759 127 0
-1760 1767 0
-1759 -127 1767 0
-1767 1760 1759 0
-1767 1760 127 0
-1761 1768 0
-1760 -127 1768 0
-1768 1761 1760 0
-1768 1761 127 0
-1762 1769 0
-1761 -127 1769 0
-1769 1762 1761 0
-1769 1762 127 0
-1763 1770 0
-128 1770 0
-1770 1763 128 0
-1764 1771 0
-1763 -128 1771 0
-1771 1764 1763 0
-1771 1764 128 0
-1765 1772 0
-1764 -128 1772 0
-1772 1765 1764 0
-1772 1765 128 0
-1766 1773 0
-1765 -128 1773 0
-1773 1766 1765 0
-1773 1766 128 0
-1767 1774 0
-1766 -128 1774 0
-1774 1767 1766 0
-1774 1767 128 0
-1768 1775 0
-1767 -128 1775 0
-1775 1768 1767 0
-1775 1768 128 0
-1769 1776 0
-1768 -128 1776 0
-1776 1769 1768 0
-1776 1769 128 0
-1770 1777 0
-129 1777 0
-1777 1770 129 0
-1771 1778 0
-1770 -129 1778 0
-1778 1771 1770 0
-1778 1771 129 0
-1772 1779 0
-1771 -129 1779 0
-1779 1772 1771 0
-1779 1772 129 0
-1773 1780 0
-1772 -129 1780 0
-1780 1773 1772 0
-1780 1773 129 0
-1774 1781 0
-1773 -129 1781 0
-1781 1774 1773 0
-1781 1774 129 0
-1775 1782 0
-1774 -129 1782 0
-1782 1775 1774 0
-1782 1775 129 0
-1776 1783 0
-1775 -129 1783 0
-1783 1776 1775 0
-1783 1776 129 0
-1777 1784 0
-130 1784 0
-1784 1777 130 0
-1778 1785 0
-1777 -130 1785 0
-1785 1778 1777 0
-1785 1778 130 0
-1779 1786 0
-1778 -130 1786 0
-1786 1779 1778 0
-1786 1779 130 0
-1780 1787 0
-1779 -130 1787 0
-1787 1780 1779 0
-1787 1780 130 0
-1781 1788 0
-1780 -130 1788 0
-1788 1781 1780 0
-1788 1781 130 0
-1782 1789 0
-1781 -130 1789 0
-1789 1782 1781 0
-1789 1782 130 0
-1783 1790 0
-1782 -130 1790 0
-1790 1783 1782 0
-1790 1783 130 0
-1784 1791 0
-131 1791 0
-1791 1784 131 0
-1785 1792 0
-1784 -131 1792 0
-1792 1785 1784 0
-1792 1785 131 0
-1786 1793 0
-1785 -131 1793 0
-1793 1786 1785 0
-1793 1786 131 0
-1787 1794 0
-1786 -131 1794 0
-1794 1787 1786 0
-1794 1787 131 0
-1788 1795 0
-1787 -131 1795 0
-1795 1788 1787 0
-1795 1788 131 0
-1789 1796 0
-1788 -131 1796 0
-1796 1789 1788 0
-1796 1789 131 0
-1790 1797 0
-1789 -131 1797 0
-1797 1790 1789 0
-1797 1790 131 0
-1791 1798 0
-132 1798 0
-1798 1791 132 0
-1792 1799 0
-1791 -132 1799 0
-1799 1792 1791 0
-1799 1792 132 0
-1793 1800 0
-1792 -132 1800 0
-1800 1793 1792 0
-1800 1793 132 0
-1794 1801 0
-1793 -132 1801 0
-1801 1794 1793 0
-1801 1794 132 0
-1795 1802 0
-1794 -132 1802 0
-1802 1795 1794 0
-1802 1795 132 0
-1796 1803 0
-1795 -132 1803 0
-1803 1796 1795 0
-1803 1796 132 0
-1797 1804 0
-1796 -132 1804 0
-1804 1797 1796 0
-1804 1797 132 0
-1798 1805 0
-133 1805 0
-1805 1798 133 0
-1799 1806 0
-1798 -133 1806 0
-1806 1799 1798 0
-1806 1799 133 0
-1800 1807 0
-1799 -133 1807 0
-1807 1800 1799 0
-1807 1800 133 0
-1801 1808 0
-1800 -133 1808 0
-1808 1801 1800 0
-1808 1801 133 0
-1802 1809 0
-1801 -133 1809 0
-1809 1802 1801 0
-1809 1802 133 0
-1803 1810 0
-1802 -133 1810 0
-1810 1803 1802 0
-1810 1803 133 0
-1804 1811 0
-1803 -133 1811 0
-1811 1804 1803 0
-1811 1804 133 0
-1805 1812 0
-134 1812 0
-1812 1805 134 0
-1806 1813 0
-1805 -134 1813 0
-1813 1806 1805 0
-1813 1806 134 0
-1807 1814 0
-1806 -134 1814 0
-1814 1807 1806 0
-1814 1807 134 0
-1808 1815 0
-1807 -134 1815 0
-1815 1808 1807 0
-1815 1808 134 0
-1809 1816 0
-1808 -134 1816 0
-1816 1809 1808 0
-1816 1809 134 0
-1810 1817 0
-1809 -134 1817 0
-1817 1810 1809 0
-1817 1810 134 0
-1811 1818 0
-1810 -134 1818 0
-1818 1811 1810 0
-1818 1811 134 0
-1812 1819 0
-135 1819 0
-1819 1812 135 0
-1813 1820 0
-1812 -135 1820 0
-1820 1813 1812 0
-1820 1813 135 0
-1814 1821 0
-1813 -135 1821 0
-1821 1814 1813 0
-1821 1814 135 0
-1815 1822 0
-1814 -135 1822 0
-1822 1815 1814 0
-1822 1815 135 0
-1816 1823 0
-1815 -135 1823 0
-1823 1816 1815 0
-1823 1816 135 0
-1817 1824 0
-1816 -135 1824 0
-1824 1817 1816 0
-1824 1817 135 0
-1818 1825 0
-1817 -135 1825 0
-1825 1818 1817 0
-1825 1818 135 0
-1819 1826 0
-136 1826 0
-1826 1819 136 0
-1820 1827 0
-1819 -136 1827 0
-1827 1820 1819 0
-1827 1820 136 0
-1821 1828 0
-1820 -136 1828 0
-1828 1821 1820 0
-1828 1821 136 0
-1822 1829 0
-1821 -136 1829 0
-1829 1822 1821 0
-1829 1822 136 0
-1823 1830 0
-1822 -136 1830 0
-1830 1823 1822 0
-1830 1823 136 0
-1824 1831 0
-1823 -136 1831 0
-1831 1824 1823 0
-1831 1824 136 0
-1825 1832 0
-1824 -136 1832 0
-1832 1825 1824 0
-1832 1825 136 0
-1826 1833 0
-137 1833 0
-1833 1826 137 0
-1827 1834 0
-1826 -137 1834 0
-1834 1827 1826 0
-1834 1827 137 0
-1828 1835 0
-1827 -137 1835 0
-1835 1828 1827 0
-1835 1828 137 0
-1829 1836 0
-1828 -137 1836 0
-1836 1829 1828 0
-1836 1829 137 0
-1830 1837 0
-1829 -137 1837 0
-1837 1830 1829 0
-1837 1830 137 0
-1831 1838 0
-1830 -137 1838 0
-1838 1831 1830 0
-1838 1831 137 0
-1832 1839 0
-1831 -137 1839 0
-1839 1832 1831 0
-1839 1832 137 0
-1833 1840 0
-138 1840 0
-1840 1833 138 0
-1834 1841 0
-1833 -138 1841 0
-1841 1834 1833 0
-1841 1834 138 0
-1835 1842 0
-1834 -138 1842 0
-1842 1835 1834 0
-1842 1835 138 0
-1836 1843 0
-1835 -138 1843 0
-1843 1836 1835 0
-1843 1836 138 0
-1837 1844 0
-1836 -138 1844 0
-1844 1837 1836 0
-1844 1837 138 0
-1838 1845 0
-1837 -138 1845 0
-1845 1838 1837 0
-1845 1838 138 0
-1839 1846 0
-1838 -138 1846 0
-1846 1839 1838 0
-1846 1839 138 0
-1840 1847 0
-139 1847 0
-1847 1840 139 0
-1841 1848 0
-1840 -139 1848 0
-1848 1841 1840 0
-1848 1841 139 0
-1842 1849 0
-1841 -139 1849 0
-1849 1842 1841 0
-1849 1842 139 0
-1843 1850 0
-1842 -139 1850 0
-1850 1843 1842 0
-1850 1843 139 0
-1844 1851 0
-1843 -139 1851 0
-1851 1844 1843 0
-1851 1844 139 0
-1845 1852 0
-1844 -139 1852 0
-1852 1845 1844 0
-1852 1845 139 0
-1846 1853 0
-1845 -139 1853 0
-1853 1846 1845 0
-1853 1846 139 0
-1847 1854 0
-140 1854 0
-1854 1847 140 0
-1848 1855 0
-1847 -140 1855 0
-1855 1848 1847 0
-1855 1848 140 0
-1849 1856 0
-1848 -140 1856 0
-1856 1849 1848 0
-1856 1849 140 0
-1850 1857 0
-1849 -140 1857 0
-1857 1850 1849 0
-1857 1850 140 0
-1851 1858 0
-1850 -140 1858 0
-1858 1851 1850 0
-1858 1851 140 0
-1852 1859 0
-1851 -140 1859 0
-1859 1852 1851 0
-1859 1852 140 0
-1853 1860 0
-1852 -140 1860 0
-1860 1853 1852 0
-1860 1853 140 0
-1854 1861 0
-141 1861 0
-1861 1854 141 0
-1855 1862 0
-1854 -141 1862 0
-1862 1855 1854 0
-1862 1855 141 0
-1856 1863 0
-1855 -141 1863 0
-1863 1856 1855 0
-1863 1856 141 0
-1857 1864 0
-1856 -141 1864 0
-1864 1857 1856 0
-1864 1857 141 0
-1858 1865 0
-1857 -141 1865 0
-1865 1858 1857 0
-1865 1858 141 0
-1859 1866 0
-1858 -141 1866 0
-1866 1859 1858 0
-1866 1859 141 0
-1860 1867 0
-1859 -141 1867 0
-1867 1860 1859 0
-1867 1860 141 0
-1861 1868 0
-142 1868 0
-1868 1861 142 0
-1862 1869 0
-1861 -142 1869 0
-1869 1862 1861 0
-1869 1862 142 0
-1863 1870 0
-1862 -142 1870 0
-1870 1863 1862 0
-1870 1863 142 0
-1864 1871 0
-1863 -142 1871 0
-1871 1864 1863 0
-1871 1864 142 0
-1865 1872 0
-1864 -142 1872 0
-1872 1865 1864 0
-1872 1865 142 0
-1866 1873 0
-1865 -142 1873 0
-1873 1866 1865 0
-1873 1866 142 0
-1867 1874 0
-1866 -142 1874 0
-1874 1867 1866 0
-1874 1867 142 0
-1868 1875 0
-143 1875 0
-1875 1868 143 0
-1869 1876 0
-1868 -143 1876 0
-1876 1869 1868 0
-1876 1869 143 0
-1870 1877 0
-1869 -143 1877 0
-1877 1870 1869 0
-1877 1870 143 0
-1871 1878 0
-1870 -143 1878 0
-1878 1871 1870 0
-1878 1871 143 0
-1872 1879 0
-1871 -143 1879 0
-1879 1872 1871 0
-1879 1872 143 0
-1873 1880 0
-1872 -143 1880 0
-1880 1873 1872 0
-1880 1873 143 0
-1874 1881 0
-1873 -143 1881 0
-1881 1874 1873 0
-1881 1874 143 0
-1875 1882 0
-144 1882 0
-1882 1875 144 0
-1876 1883 0
-1875 -144 1883 0
-1883 1876 1875 0
-1883 1876 144 0
-1877 1884 0
-1876 -144 1884 0
-1884 1877 1876 0
-1884 1877 144 0
-1878 1885 0
-1877 -144 1885 0
-1885 1878 1877 0
-1885 1878 144 0
-1879 1886 0
-1878 -144 1886 0
-1886 1879 1878 0
-1886 1879 144 0
-1880 1887 0
-1879 -144 1887 0
-1887 1880 1879 0
-1887 1880 144 0
-1881 1888 0
-1880 -144 1888 0
-1888 1881 1880 0
-1888 1881 144 0
-1882 1889 0
-145 1889 0
-1889 1882 145 0
-1883 1890 0
-1882 -145 1890 0
-1890 1883 1882 0
-1890 1883 145 0
-1884 1891 0
-1883 -145 1891 0
-1891 1884 1883 0
-1891 1884 145 0
-1885 1892 0
-1884 -145 1892 0
-1892 1885 1884 0
-1892 1885 145 0
-1886 1893 0
-1885 -145 1893 0
-1893 1886 1885 0
-1893 1886 145 0
-1887 1894 0
-1886 -145 1894 0
-1894 1887 1886 0
-1894 1887 145 0
-1888 1895 0
-1887 -145 1895 0
-1895 1888 1887 0
-1895 1888 145 0
-1889 1896 0
-146 1896 0
-1896 1889 146 0
-1890 1897 0
-1889 -146 1897 0
-1897 1890 1889 0
-1897 1890 146 0
-1891 1898 0
-1890 -146 1898 0
-1898 1891 1890 0
-1898 1891 146 0
-1892 1899 0
-1891 -146 1899 0
-1899 1892 1891 0
-1899 1892 146 0
-1893 1900 0
-1892 -146 1900 0
-1900 1893 1892 0
-1900 1893 146 0
-1894 1901 0
-1893 -146 1901 0
-1901 1894 1893 0
-1901 1894 146 0
-1895 1902 0
-1894 -146 1902 0
-1902 1895 1894 0
-1902 1895 146 0
-1896 1903 0
-147 1903 0
-1903 1896 147 0
-1897 1904 0
-1896 -147 1904 0
-1904 1897 1896 0
-1904 1897 147 0
-1898 1905 0
-1897 -147 1905 0
-1905 1898 1897 0
-1905 1898 147 0
-1899 1906 0
-1898 -147 1906 0
-1906 1899 1898 0
-1906 1899 147 0
-1900 1907 0
-1899 -147 1907 0
-1907 1900 1899 0
-1907 1900 147 0
-1901 1908 0
-1900 -147 1908 0
-1908 1901 1900 0
-1908 1901 147 0
-1902 1909 0
-1901 -147 1909 0
-1909 1902 1901 0
-1909 1902 147 0
-1903 1910 0
-148 1910 0
-1910 1903 148 0
-1904 1911 0
-1903 -148 1911 0
-1911 1904 1903 0
-1911 1904 148 0
-1905 1912 0
-1904 -148 1912 0
-1912 1905 1904 0
-1912 1905 148 0
-1906 1913 0
-1905 -148 1913 0
-1913 1906 1905 0
-1913 1906 148 0
-1907 1914 0
-1906 -148 1914 0
-1914 1907 1906 0
-1914 1907 148 0
-1908 1915 0
-1907 -148 1915 0
-1915 1908 1907 0
-1915 1908 148 0
-1909 1916 0
-1908 -148 1916 0
-1916 1909 1908 0
-1916 1909 148 0
-1910 1917 0
-149 1917 0
-1917 1910 149 0
-1911 1918 0
-1910 -149 1918 0
-1918 1911 1910 0
-1918 1911 149 0
-1912 1919 0
-1911 -149 1919 0
-1919 1912 1911 0
-1919 1912 149 0
-1913 1920 0
-1912 -149 1920 0
-1920 1913 1912 0
-1920 1913 149 0
-1914 1921 0
-1913 -149 1921 0
-1921 1914 1913 0
-1921 1914 149 0
-1915 1922 0
-1914 -149 1922 0
-1922 1915 1914 0
-1922 1915 149 0
-1916 1923 0
-1915 -149 1923 0
-1923 1916 1915 0
-1923 1916 149 0
-1917 1924 0
-150 1924 0
-1924 1917 150 0
-1918 1925 0
-1917 -150 1925 0
-1925 1918 1917 0
-1925 1918 150 0
-1919 1926 0
-1918 -150 1926 0
-1926 1919 1918 0
-1926 1919 150 0
-1920 1927 0
-1919 -150 1927 0
-1927 1920 1919 0
-1927 1920 150 0
-1921 1928 0
-1920 -150 1928 0
-1928 1921 1920 0
-1928 1921 150 0
-1922 1929 0
-1921 -150 1929 0
-1929 1922 1921 0
-1929 1922 150 0
-1923 1930 0
-1922 -150 1930 0
-1930 1923 1922 0
-1930 1923 150 0
-1924 1931 0
-151 1931 0
-1931 1924 151 0
-1925 1932 0
-1924 -151 1932 0
-1932 1925 1924 0
-1932 1925 151 0
-1926 1933 0
-1925 -151 1933 0
-1933 1926 1925 0
-1933 1926 151 0
-1927 1934 0
-1926 -151 1934 0
-1934 1927 1926 0
-1934 1927 151 0
-1928 1935 0
-1927 -151 1935 0
-1935 1928 1927 0
-1935 1928 151 0
-1929 1936 0
-1928 -151 1936 0
-1936 1929 1928 0
-1936 1929 151 0
-1930 1937 0
-1929 -151 1937 0
-1937 1930 1929 0
-1937 1930 151 0
-1931 1938 0
-152 1938 0
-1938 1931 152 0
-1932 1939 0
-1931 -152 1939 0
-1939 1932 1931 0
-1939 1932 152 0
-1933 1940 0
-1932 -152 1940 0
-1940 1933 1932 0
-1940 1933 152 0
-1934 1941 0
-1933 -152 1941 0
-1941 1934 1933 0
-1941 1934 152 0
-1935 1942 0
-1934 -152 1942 0
-1942 1935 1934 0
-1942 1935 152 0
-1936 1943 0
-1935 -152 1943 0
-1943 1936 1935 0
-1943 1936 152 0
-1937 1944 0
-1936 -152 1944 0
-1944 1937 1936 0
-1944 1937 152 0
-1938 1945 0
-153 1945 0
-1945 1938 153 0
-1939 1946 0
-1938 -153 1946 0
-1946 1939 1938 0
-1946 1939 153 0
-1940 1947 0
-1939 -153 1947 0
-1947 1940 1939 0
-1947 1940 153 0
-1941 1948 0
-1940 -153 1948 0
-1948 1941 1940 0
-1948 1941 153 0
-1942 1949 0
-1941 -153 1949 0
-1949 1942 1941 0
-1949 1942 153 0
-1943 1950 0
-1942 -153 1950 0
-1950 1943 1942 0
-1950 1943 153 0
-1944 1951 0
-1943 -153 1951 0
-1951 1944 1943 0
-1951 1944 153 0
-1945 1952 0
-154 1952 0
-1952 1945 154 0
-1946 1953 0
-1945 -154 1953 0
-1953 1946 1945 0
-1953 1946 154 0
-1947 1954 0
-1946 -154 1954 0
-1954 1947 1946 0
-1954 1947 154 0
-1948 1955 0
-1947 -154 1955 0
-1955 1948 1947 0
-1955 1948 154 0
-1949 1956 0
-1948 -154 1956 0
-1956 1949 1948 0
-1956 1949 154 0
-1950 1957 0
-1949 -154 1957 0
-1957 1950 1949 0
-1957 1950 154 0
-1951 1958 0
-1950 -154 1958 0
-1958 1951 1950 0
-1958 1951 154 0
-1952 1959 0
-155 1959 0
-1959 1952 155 0
-1953 1960 0
-1952 -155 1960 0
-1960 1953 1952 0
-1960 1953 155 0
-1954 1961 0
-1953 -155 1961 0
-1961 1954 1953 0
-1961 1954 155 0
-1955 1962 0
-1954 -155 1962 0
-1962 1955 1954 0
-1962 1955 155 0
-1956 1963 0
-1955 -155 1963 0
-1963 1956 1955 0
-1963 1956 155 0
-1957 1964 0
-1956 -155 1964 0
-1964 1957 1956 0
-1964 1957 155 0
-1958 1965 0
-1957 -155 1965 0
-1965 1958 1957 0
-1965 1958 155 0
-1959 1966 0
-156 1966 0
-1966 1959 156 0
-1960 1967 0
-1959 -156 1967 0
-1967 1960 1959 0
-1967 1960 156 0
-1961 1968 0
-1960 -156 1968 0
-1968 1961 1960 0
-1968 1961 156 0
-1962 1969 0
-1961 -156 1969 0
-1969 1962 1961 0
-1969 1962 156 0
-1963 1970 0
-1962 -156 1970 0
-1970 1963 1962 0
-1970 1963 156 0
-1964 1971 0
-1963 -156 1971 0
-1971 1964 1963 0
-1971 1964 156 0
-1965 1972 0
-1964 -156 1972 0
-1972 1965 1964 0
-1972 1965 156 0
-1966 1973 0
-157 1973 0
-1973 1966 157 0
-1967 1974 0
-1966 -157 1974 0
-1974 1967 1966 0
-1974 1967 157 0
-1968 1975 0
-1967 -157 1975 0
-1975 1968 1967 0
-1975 1968 157 0
-1969 1976 0
-1968 -157 1976 0
-1976 1969 1968 0
-1976 1969 157 0
-1970 1977 0
-1969 -157 1977 0
-1977 1970 1969 0
-1977 1970 157 0
-1971 1978 0
-1970 -157 1978 0
-1978 1971 1970 0
-1978 1971 157 0
-1972 1979 0
-1971 -157 1979 0
-1979 1972 1971 0
-1979 1972 157 0
-1973 1980 0
-158 1980 0
-1980 1973 158 0
-1974 1981 0
-1973 -158 1981 0
-1981 1974 1973 0
-1981 1974 158 0
-1975 1982 0
-1974 -158 1982 0
-1982 1975 1974 0
-1982 1975 158 0
-1976 1983 0
-1975 -158 1983 0
-1983 1976 1975 0
-1983 1976 158 0
-1977 1984 0
-1976 -158 1984 0
-1984 1977 1976 0
-1984 1977 158 0
-1978 1985 0
-1977 -158 1985 0
-1985 1978 1977 0
-1985 1978 158 0
-1979 1986 0
-1978 -158 1986 0
-1986 1979 1978 0
-1986 1979 158 0
-1980 1987 0
-159 1987 0
-1987 1980 159 0
-1981 1988 0
-1980 -159 1988 0
-1988 1981 1980 0
-1988 1981 159 0
-1982 1989 0
-1981 -159 1989 0
-1989 1982 1981 0
-1989 1982 159 0
-1983 1990 0
-1982 -159 1990 0
-1990 1983 1982 0
-1990 1983 159 0
-1984 1991 0
-1983 -159 1991 0
-1991 1984 1983 0
-1991 1984 159 0
-1985 1992 0
-1984 -159 1992 0
-1992 1985 1984 0
-1992 1985 159 0
-1986 1993 0
-1985 -159 1993 0
-1993 1986 1985 0
-1993 1986 159 0
-1987 1994 0
-160 1994 0
-1994 1987 160 0
-1988 1995 0
-1987 -160 1995 0
-1995 1988 1987 0
-1995 1988 160 0
-1989 1996 0
-1988 -160 1996 0
-1996 1989 1988 0
-1996 1989 160 0
-1990 1997 0
-1989 -160 1997 0
-1997 1990 1989 0
-1997 1990 160 0
-1991 1998 0
-1990 -160 1998 0
-1998 1991 1990 0
-1998 1991 160 0
-1992 1999 0
-1991 -160 1999 0
-1999 1992 1991 0
-1999 1992 160 0
-1993 2000 0
-1992 -160 2000 0
-2000 1993 1992 0
-2000 1993 160 0
-1994 2001 0
-161 2001 0
-2001 1994 161 0
-1995 2002 0
-1994 -161 2002 0
-2002 1995 1994 0
-2002 1995 161 0
-1996 2003 0
-1995 -161 2003 0
-2003 1996 1995 0
-2003 1996 161 0
-1997 2004 0
-1996 -161 2004 0
-2004 1997 1996 0
-2004 1997 161 0
-1998 2005 0
-1997 -161 2005 0
-2005 1998 1997 0
-2005 1998 161 0
-1999 2006 0
-1998 -161 2006 0
-2006 1999 1998 0
-2006 1999 161 0
-2000 2007 0
-1999 -161 2007 0
-2007 2000 1999 0
-2007 2000 161 0
-2001 2008 0
-162 2008 0
-2008 2001 162 0
-2002 2009 0
-2001 -162 2009 0
-2009 2002 2001 0
-2009 2002 162 0
-2003 2010 0
-2002 -162 2010 0
-2010 2003 2002 0
-2010 2003 162 0
-2004 2011 0
-2003 -162 2011 0
-2011 2004 2003 0
-2011 2004 162 0
-2005 2012 0
-2004 -162 2012 0
-2012 2005 2004 0
-2012 2005 162 0
-2006 2013 0
-2005 -162 2013 0
-2013 2006 2005 0
-2013 2006 162 0
-2007 2014 0
-2006 -162 2014 0
-2014 2007 2006 0
-2014 2007 162 0
-2008 2015 0
-163 2015 0
-2015 2008 163 0
-2009 2016 0
-2008 -163 2016 0
-2016 2009 2008 0
-2016 2009 163 0
-2010 2017 0
-2009 -163 2017 0
-2017 2010 2009 0
-2017 2010 163 0
-2011 2018 0
-2010 -163 2018 0
-2018 2011 2010 0
-2018 2011 163 0
-2012 2019 0
-2011 -163 2019 0
-2019 2012 2011 0
-2019 2012 163 0
-2013 2020 0
-2012 -163 2020 0
-2020 2013 2012 0
-2020 2013 163 0
-2014 2021 0
-2013 -163 2021 0
-2021 2014 2013 0
-2021 2014 163 0
-2015 2022 0
-164 2022 0
-2022 2015 164 0
-2016 2023 0
-2015 -164 2023 0
-2023 2016 2015 0
-2023 2016 164 0
-2017 2024 0
-2016 -164 2024 0
-2024 2017 2016 0
-2024 2017 164 0
-2018 2025 0
-2017 -164 2025 0
-2025 2018 2017 0
-2025 2018 164 0
-2019 2026 0
-2018 -164 2026 0
-2026 2019 2018 0
-2026 2019 164 0
-2020 2027 0
-2019 -164 2027 0
-2027 2020 2019 0
-2027 2020 164 0
-2021 2028 0
-2020 -164 2028 0
-2028 2021 2020 0
-2028 2021 164 0
2027 0
-2028 0
-2029 165 0
-165 2029 0
-2029 2030 0
-166 2030 0
-2030 2029 166 0
-2031 2029 0
-2031 166 0
-2029 -166 2031 0
-2030 2032 0
-167 2032 0
-2032 2030 167 0
-2031 2033 0
-2030 -167 2033 0
-2033 2031 2030 0
-2033 2031 167 0
-2034 2031 0
-2034 167 0
-2031 -167 2034 0
-2032 2035 0
-168 2035 0
-2035 2032 168 0
-2033 2036 0
-2032 -168 2036 0
-2036 2033 2032 0
-2036 2033 168 0
-2034 2037 0
-2033 -168 2037 0
-2037 2034 2033 0
-2037 2034 168 0
-2038 2034 0
-2038 168 0
-2034 -168 2038 0
-2035 2039 0
-169 2039 0
-2039 2035 169 0
-2036 2040 0
-2035 -169 2040 0
-2040 2036 2035 0
-2040 2036 169 0
-2037 2041 0
-2036 -169 2041 0
-2041 2037 2036 0
-2041 2037 169 0
-2038 2042 0
-2037 -169 2042 0
-2042 2038 2037 0
-2042 2038 169 0
-2043 2038 0
-2043 169 0
-2038 -169 2043 0
-2039 2044 0
-170 2044 0
-2044 2039 170 0
-2040 2045 0
-2039 -170 2045 0
-2045 2040 2039 0
-2045 2040 170 0
-2041 2046 0
-2040 -170 2046 0
-2046 2041 2040 0
-2046 2041 170 0
-2042 2047 0
-2041 -170 2047 0
-2047 2042 2041 0
-2047 2042 170 0
-2043 2048 0
-2042 -170 2048 0
-2048 2043 2042 0
-2048 2043 170 0
-2044 2049 0
-171 2049 0
-2049 2044 171 0
-2045 2050 0
-2044 -171 2050 0
-2050 2045 2044 0
-2050 2045 171 0
-2046 2051 0
-2045 -171 2051 0
-2051 2046 2045 0
-2051 2046 171 0
-2047 2052 0
-2046 -171 2052 0
-2052 2047 2046 0
-2052 2047 171 0
-2048 2053 0
-2047 -171 2053 0
-2053 2048 2047 0
-2053 2048 171 0
-2049 2054 0
-172 2054 0
-2054 2049 172 0
-2050 2055 0
-2049 -172 2055 0
-2055 2050 2049 0
-2055 2050 172 0
-2051 2056 0
-2050 -172 2056 0
-2056 2051 2050 0
-2056 2051 172 0
-2052 2057 0
-2051 -172 2057 0
-2057 2052 2051 0
-2057 2052 172 0
-2053 2058 0
-2052 -172 2058 0
-2058 2053 2052 0
-2058 2053 172 0
-2054 2059 0
-173 2059 0
-2059 2054 173 0
-2055 2060 0
-2054 -173 2060 0
-2060 2055 2054 0
-2060 2055 173 0
-2056 2061 0
-2055 -173 2061 0
-2061 2056 2055 0
-2061 2056 173 0
-2057 2062 0
-2056 -173 2062 0
-2062 2057 2056 0
-2062 2057 173 0
-2058 2063 0
-2057 -173 2063 0
-2063 2058 2057 0
-2063 2058 173 0
-2059 2064 0
-174 2064 0
-2064 2059 174 0
-2060 2065 0
-2059 -174 2065 0
-2065 2060 2059 0
-2065 2060 174 0
-2061 2066 0
-2060 -174 2066 0
-2066 2061 2060 0
-2066 2061 174 0
-2062 2067 0
-2061 -174 2067 0
-2067 2062 2061 0
-2067 2062 174 0
-2063 2068 0
-2062 -174 2068 0
-2068 2063 2062 0
-2068 2063 174 0
-2064 2069 0
-175 2069 0
-2069 2064 175 0
-2065 2070 0
-2064 -175 2070 0
-2070 2065 2064 0
-2070 2065 175 0
-2066 2071 0
-2065 -175 2071 0
-2071 2066 2065 0
-2071 2066 175 0
-2067 2072 0
-2066 -175 2072 0
-2072 2067 2066 0
-2072 2067 175 0
-2068 2073 0
-2067 -175 2073 0
-2073 2068 2067 0
-2073 2068 175 0
-2069 2074 0
-176 2074 0
-2074 2069 176 0
-2070 2075 0
-2069 -176 2075 0
-2075 2070 2069 0
-2075 2070 176 0
-2071 2076 0
-2070 -176 2076 0
-2076 2071 2070 0
-2076 2071 176 0
-2072 2077 0
-2071 -176 2077 0
-2077 2072 2071 0
-2077 2072 176 0
-2073 2078 0
-2072 -176 2078 0
-2078 2073 2072 0
-2078 2073 176 0
-2074 2079 0
-177 2079 0
-2079 2074 177 0
-2075 2080 0
-2074 -177 2080 0
-2080 2075 2074 0
-2080 2075 177 0
-2076 2081 0
-2075 -177 2081 0
-2081 2076 2075 0
-2081 2076 177 0
-2077 2082 0
-2076 -177 2082 0
-2082 2077 2076 0
-2082 2077 177 0
-2078 2083 0
-2077 -177 2083 0
-2083 2078 2077 0
-2083 2078 177 0
-2079 2084 0
-178 2084 0
-2084 2079 178 0
-2080 2085 0
-2079 -178 2085 0
-2085 2080 2079 0
-2085 2080 178 0
-2081 2086 0
-2080 -178 2086 0
-2086 2081 2080 0
-2086 2081 178 0
-2082 2087 0
-2081 -178 2087 0
-2087 2082 2081 0
-2087 2082 178 0
-2083 2088 0
-2082 -178 2088 0
-2088 2083 2082 0
-2088 2083 178 0
-2084 2089 0
-179 2089 0
-2089 2084 179 0
-2085 2090 0
-2084 -179 2090 0
-2090 2085 2084 0
-2090 2085 179 0
-2086 2091 0
-2085 -179 2091 0
-2091 2086 2085 0
-2091 2086 179 0
-2087 2092 0
-2086 -179 2092 0
-2092 2087 2086 0
-2092 2087 179 0
-2088 2093 0
-2087 -179 2093 0
-2093 2088 2087 0
-2093 2088 179 0
-2089 2094 0
-180 2094 0
-2094 2089 180 0
-2090 2095 0
-2089 -180 2095 0
-2095 2090 2089 0
-2095 2090 180 0
-2091 2096 0
-2090 -180 2096 0
-2096 2091 2090 0
-2096 2091 180 0
-2092 2097 0
-2091 -180 2097 0
-2097 2092 2091 0
-2097 2092 180 0
-2093 2098 0
-2092 -180 2098 0
-2098 2093 2092 0
-2098 2093 180 0
-2094 2099 0
-181 2099 0
-2099 2094 181 0
-2095 2100 0
-2094 -181 2100 0
-2100 2095 2094 0
-2100 2095 181 0
-2096 2101 0
-2095 -181 2101 0
-2101 2096 2095 0
-2101 2096 181 0
-2097 2102 0
-2096 -181 2102 0
-2102 2097 2096 0
-2102 2097 181 0
-2098 2103 0
-2097 -181 2103 0
-2103 2098 2097 0
-2103 2098 181 0
-2099 2104 0
-182 2104 0
-2104 2099 182 0
-2100 2105 0
-2099 -182 2105 0
-2105 2100 2099 0
-2105 2100 182 0
-2101 2106 0
-2100 -182 2106 0
-2106 2101 2100 0
-2106 2101 182 0
-2102 2107 0
-2101 -182 2107 0
-2107 2102 2101 0
-2107 2102 182 0
-2103 2108 0
-2102 -182 2108 0
-2108 2103 2102 0
-2108 2103 182 0
-2104 2109 0
-183 2109 0
-2109 2104 183 0
-2105 2110 0
-2104 -183 2110 0
-2110 2105 2104 0
-2110 2105 183 0
-2106 2111 0
-2105 -183 2111 0
-2111 2106 2105 0
-2111 2106 183 0
-2107 2112 0
-2106 -183 2112 0
-2112 2107 2106 0
-2112 2107 183 0
-2108 2113 0
-2107 -183 2113 0
-2113 2108 2107 0
-2113 2108 183 0
-2109 2114 0
-184 2114 0
-2114 2109 184 0
-2110 2115 0
-2109 -184 2115 0
-2115 2110 2109 0
-2115 2110 184 0
-2111 2116 0
-2110 -184 2116 0
-2116 2111 2110 0
-2116 2111 184 0
-2112 2117 0
-2111 -184 2117 0
-2117 2112 2111 0
-2117 2112 184 0
-2113 2118 0
-2112 -184 2118 0
-2118 2113 2112 0
-2118 2113 184 0
-2114 2119 0
-185 2119 0
-2119 2114 185 0
-2115 2120 0
-2114 -185 2120 0
-2120 2115 2114 0
-2120 2115 185 0
-2116 2121 0
-2115 -185 2121 0
-2121 2116 2115 0
-2121 2116 185 0
-2117 2122 0
-2116 -185 2122 0
-2122 2117 2116 0
-2122 2117 185 0
-2118 2123 0
-2117 -185 2123 0
-2123 2118 2117 0
-2123 2118 185 0
-2119 2124 0
-186 2124 0
-2124 2119 186 0
-2120 2125 0
-2119 -186 2125 0
-2125 2120 2119 0
-2125 2120 186 0
-2121 2126 0
-2120 -186 2126 0
-2126 2121 2120 0
-2126 2121 186 0
-2122 2127 0
-2121 -186 2127 0
-2127 2122 2121 0
-2127 2122 186 0
-2123 2128 0
-2122 -186 2128 0
-2128 2123 2122 0
-2128 2123 186 0
-2124 2129 0
-187 2129 0
-2129 2124 187 0
-2125 2130 0
-2124 -187 2130 0
-2130 2125 2124 0
-2130 2125 187 0
-2126 2131 0
-2125 -187 2131 0
-2131 2126 2125 0
-2131 2126 187 0
-2127 2132 0
-2126 -187 2132 0
-2132 2127 2126 0
-2132 2127 187 0
-2128 2133 0
-2127 -187 2133 0
-2133 2128 2127 0
-2133 2128 187 0
-2129 2134 0
-188 2134 0
-2134 2129 188 0
-2130 2135 0
-2129 -188 2135 0
-2135 2130 2129 0
-2135 2130 188 0
-2131 2136 0
-2130 -188 2136 0
-2136 2131 2130 0
-2136 2131 188 0
-2132 2137 0
-2131 -188 2137 0
-2137 2132 2131 0
-2137 2132 188 0
-2133 2138 0
-2132 -188 2138 0
-2138 2133 2132 0
-2138 2133 188 0
-2134 2139 0
-189 2139 0
-2139 2134 189 0
-2135 2140 0
-2134 -189 2140 0
-2140 2135 2134 0
-2140 2135 189 0
-2136 2141 0
-2135 -189 2141 0
-2141 2136 2135 0
-2141 2136 189 0
-2137 2142 0
-2136 -189 2142 0
-2142 2137 2136 0
-2142 2137 189 0
-2138 2143 0
-2137 -189 2143 0
-2143 2138 2137 0
-2143 2138 189 0
-2139 2144 0
-190 2144 0
-2144 2139 190 0
-2140 2145 0
-2139 -190 2145 0
-2145 2140 2139 0
-2145 2140 190 0
-2141 2146 0
-2140 -190 2146 0
-2146 2141 2140 0
-2146 2141 190 0
-2142 2147 0
-2141 -190 2147 0
-2147 2142 2141 0
-2147 2142 190 0
-2143 2148 0
-2142 -190 2148 0
-2148 2143 2142 0
-2148 2143 190 0
-2144 2149 0
-191 2149 0
-2149 2144 191 0
-2145 2150 0
-2144 -191 2150 0
-2150 2145 2144 0
-2150 2145 191 0
-2146 2151 0
-2145 -191 2151 0
-2151 2146 2145 0
-2151 2146 191 0
-2147 2152 0
-2146 -191 2152 0
-2152 2147 2146 0
-2152 2147 191 0
-2148 2153 0
-2147 -191 2153 0
-2153 2148 2147 0
-2153 2148 191 0
-2149 2154 0
-192 2154 0
-2154 2149 192 0
-2150 2155 0
-2149 -192 2155 0
-2155 2150 2149 0
-2155 2150 192 0
-2151 2156 0
-2150 -192 2156 0
-2156 2151 2150 0
-2156 2151 192 0
-2152 2157 0
-2151 -192 2157 0
-2157 2152 2151 0
-2157 2152 192 0
-2153 2158 0
-2152 -192 2158 0
-2158 2153 2152 0
-2158 2153 192 0
-2154 2159 0
-193 2159 0
-2159 2154 193 0
-2155 2160 0
-2154 -193 2160 0
-2160 2155 2154 0
-2160 2155 193 0
-2156 2161 0
-2155 -193 2161 0
-2161 2156 2155 0
-2161 2156 193 0
-2157 2162 0
-2156 -193 2162 0
-2162 2157 2156 0
-2162 2157 193 0
-2158 2163 0
-2157 -193 2163 0
-2163 2158 2157 0
-2163 2158 193 0
-2159 2164 0
-194 2164 0
-2164 2159 194 0
-2160 2165 0
-2159 -194 2165 0
-2165 2160 2159 0
-2165 2160 194 0
-2161 2166 0
-2160 -194 2166 0
-2166 2161 2160 0
-2166 2161 194 0
-2162 2167 0
-2161 -194 2167 0
-2167 2162 2161 0
-2167 2162 194 0
-2163 2168 0
-2162 -194 2168 0
-2168 2163 2162 0
-2168 2163 194 0
-2164 2169 0
-195 2169 0
-2169 2164 195 0
-2165 2170 0
-2164 -195 2170 0
-2170 2165 2164 0
-2170 2165 195 0
-2166 2171 0
-2165 -195 2171 0
-2171 2166 2165 0
-2171 2166 195 0
-2167 2172 0
-2166 -195 2172 0
-2172 2167 2166 0
-2172 2167 195 0
-2168 2173 0
-2167 -195 2173 0
-2173 2168 2167 0
-2173 2168 195 0
-2169 2174 0
-196 2174 0
-2174 2169 196 0
-2170 2175 0
-2169 -196 2175 0
-2175 2170 2169 0
-2175 2170 196 0
-2171 2176 0
-2170 -196 2176 0
-2176 2171 2170 0
-2176 2171 196 0
-2172 2177 0
-2171 -196 2177 0
-2177 2172 2171 0
-2177 2172 196 0
-2173 2178 0
-2172 -196 2178 0
-2178 2173 2172 0
-2178 2173 196 0
-2174 2179 0
-197 2179 0
-2179 2174 197 0
-2175 2180 0
-2174 -197 2180 0
-2180 2175 2174 0
-2180 2175 197 0
-2176 2181 0
-2175 -197 2181 0
-2181 2176 2175 0
-2181 2176 197 0
-2177 2182 0
-2176 -197 2182 0
-2182 2177 2176 0
-2182 2177 197 0
-2178 2183 0
-2177 -197 2183 0
-2183 2178 2177 0
-2183 2178 197 0
-2179 2184 0
-198 2184 0
-2184 2179 198 0
-2180 2185 0
-2179 -198 2185 0
-2185 2180 2179 0
-2185 2180 198 0
-2181 2186 0
-2180 -198 2186 0
-2186 2181 2180 0
-2186 2181 198 0
-2182 2187 0
-2181 -198 2187 0
-2187 2182 2181 0
-2187 2182 198 0
-2183 2188 0
-2182 -198 2188 0
-2188 2183 2182 0
-2188 2183 198 0
-2184 2189 0
-199 2189 0
-2189 2184 199 0
-2185 2190 0
-2184 -199 2190 0
-2190 2185 2184 0
-2190 2185 199 0
-2186 2191 0
-2185 -199 2191 0
-2191 2186 2185 0
-2191 2186 199 0
-2187 2192 0
-2186 -199 2192 0
-2192 2187 2186 0
-2192 2187 199 0
-2188 2193 0
-2187 -199 2193 0
-2193 2188 2187 0
-2193 2188 199 0
-2189 2194 0
-200 2194 0
-2194 2189 200 0
-2190 2195 0
-2189 -200 2195 0
-2195 2190 2189 0
-2195 2190 200 0
-2191 2196 0
-2190 -200 2196 0
-2196 2191 2190 0
-2196 2191 200 0
-2192 2197 0
-2191 -200 2197 0
-2197 2192 2191 0
-2197 2192 200 0
-2193 2198 0
-2192 -200 2198 0
-2198 2193 2192 0
-2198 2193 200 0
-2194 2199 0
-201 2199 0
-2199 2194 201 0
-2195 2200 0
-2194 -201 2200 0
-2200 2195 2194 0
-2200 2195 201 0
-2196 2201 0
-2195 -201 2201 0
-2201 2196 2195 0
-2201 2196 201 0
-2197 2202 0
-2196 -201 2202 0
-2202 2197 2196 0
-2202 2197 201 0
-2198 2203 0
-2197 -201 2203 0
-2203 2198 2197 0
-2203 2198 201 0
-2199 2204 0
-202 2204 0
-2204 2199 202 0
-2200 2205 0
-2199 -202 2205 0
-2205 2200 2199 0
-2205 2200 202 0
-2201 2206 0
-2200 -202 2206 0
-2206 2201 2200 0
-2206 2201 202 0
-2202 2207 0
-2201 -202 2207 0
-2207 2202 2201 0
-2207 2202 202 0
-2203 2208 0
-2202 -202 2208 0
-2208 2203 2202 0
-2208 2203 202 0
-2204 2209 0
-203 2209 0
-2209 2204 203 0
-2205 2210 0
-2204 -203 2210 0
-2210 2205 2204 0
-2210 2205 203 0
-2206 2211 0
-2205 -203 2211 0
-2211 2206 2205 0
-2211 2206 203 0
-2207 2212 0
-2206 -203 2212 0
-2212 2207 2206 0
-2212 2207 203 0
-2208 2213 0
-2207 -203 2213 0
-2213 2208 2207 0
-2213 2208 203 0
-2209 2214 0
-204 2214 0
-2214 2209 204 0
-2210 2215 0
-2209 -204 2215 0
-2215 2210 2209 0
-2215 2210 204 0
-2211 2216 0
-2210 -204 2216 0
-2216 2211 2210 0
-2216 2211 204 0
-2212 2217 0
-2211 -204 2217 0
-2217 2212 2211 0
-2217 2212 204 0
-2213 2218 0
-2212 -204 2218 0
-2218 2213 2212 0
-2218 2213 204 0
-2214 2219 0
-205 2219 0
-2219 2214 205 0
-2215 2220 0
-2214 -205 2220 0
-2220 2215 2214 0
-2220 2215 205 0
-2216 2221 0
-2215 -205 2221 0
-2221 2216 2215 0
-2221 2216 205 0
-2217 2222 0
-2216 -205 2222 0
-2222 2217 2216 0
-2222 2217 205 0
-2218 2223 0
-2217 -205 2223 0
-2223 2218 2217 0
-2223 2218 205 0
-2219 2224 0
-206 2224 0
-2224 2219 206 0
-2220 2225 0
-2219 -206 2225 0
-2225 2220 2219 0
-2225 2220 206 0
-2221 2226 0
-2220 -206 2226 0
-2226 2221 2220 0
-2226 2221 206 0
-2222 2227 0
-2221 -206 2227 0
-2227 2222 2221 0
-2227 2222 206 0
-2223 2228 0
-2222 -206 2228 0
-2228 2223 2222 0
-2228 2223 206 0
-2224 2229 0
-207 2229 0
-2229 2224 207 0
-2225 2230 0
-2224 -207 2230 0
-2230 2225 2224 0
-2230 2225 207 0
-2226 2231 0
-2225 -207 2231 0
-2231 2226 2225 0
-2231 2226 207 0
-2227 2232 0
-2226 -207 2232 0
-2232 2227 2226 0
-2232 2227 207 0
-2228 2233 0
-2227 -207 2233 0
-2233 2228 2227 0
-2233 2228 207 0
-2229 2234 0
-208 2234 0
-2234 2229 208 0
-2230 2235 0
-2229 -208 2235 0
-2235 2230 2229 0
-2235 2230 208 0
-2231 2236 0
-2230 -208 2236 0
-2236 2231 2230 0
-2236 2231 208 0
-2232 2237 0
-2231 -208 2237 0
-2237 2232 2231 0
-2237 2232 208 0
-2233 2238 0
-2232 -208 2238 0
-2238 2233 2232 0
-2238 2233 208 0
-2234 2239 0
-209 2239 0
-2239 2234 209 0
-2235 2240 0
-2234 -209 2240 0
-2240 2235 2234 0
-2240 2235 209 0
-2236 2241 0
-2235 -209 2241 0
-2241 2236 2235 0
-2241 2236 209 0
-2237 2242 0
-2236 -209 2242 0
-2242 2237 2236 0
-2242 2237 209 0
-2238 2243 0
-2237 -209 2243 0
-2243 2238 2237 0
-2243 2238 209 0
-2239 2244 0
-210 2244 0
-2244 2239 210 0
-2240 2245 0
-2239 -210 2245 0
-2245 2240 2239 0
-2245 2240 210 0
-2241 2246 0
-2240 -210 2246 0
-2246 2241 2240 0
-2246 2241 210 0
-2242 2247 0
-2241 -210 2247 0
-2247 2242 2241 0
-2247 2242 210 0
-2243 2248 0
-2242 -210 2248 0
-2248 2243 2242 0
-2248 2243 210 0
-2244 2249 0
-211 2249 0
-2249 2244 211 0
-2245 2250 0
-2244 -211 2250 0
-2250 2245 2244 0
-2250 2245 211 0
-2246 2251 0
-2245 -211 2251 0
-2251 2246 2245 0
-2251 2246 211 0
-2247 2252 0
-2246 -211 2252 0
-2252 2247 2246 0
-2252 2247 211 0
-2248 2253 0
-2247 -211 2253 0
-2253 2248 2247 0
-2253 2248 211 0
-2249 2254 0
-212 2254 0
-2254 2249 212 0
-2250 2255 0
-2249 -212 2255 0
-2255 2250 2249 0
-2255 2250 212 0
-2251 2256 0
-2250 -212 2256 0
-2256 2251 2250 0
-2256 2251 212 0
-2252 2257 0
-2251 -212 2257 0
-2257 2252 2251 0
-2257 2252 212 0
-2253 2258 0
-2252 -212 2258 0
-2258 2253 2252 0
-2258 2253 212 0
-2254 2259 0
-213 2259 0
-2259 2254 213 0
-2255 2260 0
-2254 -213 2260 0
-2260 2255 2254 0
-2260 2255 213 0
-2256 2261 0
-2255 -213 2261 0
-2261 2256 2255 0
-2261 2256 213 0
-2257 2262 0
-2256 -213 2262 0
-2262 2257 2256 0
-2262 2257 213 0
-2258 2263 0
-2257 -213 2263 0
-2263 2258 2257 0
-2263 2258 213 0
-2259 2264 0
-214 2264 0
-2264 2259 214 0
-2260 2265 0
-2259 -214 2265 0
-2265 2260 2259 0
-2265 2260 214 0
-2261 2266 0
-2260 -214 2266 0
-2266 2261 2260 0
-2266 2261 214 0
-2262 2267 0
-2261 -214 2267 0
-2267 2262 2261 0
-2267 2262 214 0
-2263 2268 0
-2262 -214 2268 0
-2268 2263 2262 0
-2268 2263 214 0
-2264 2269 0
-215 2269 0
-2269 2264 215 0
-2265 2270 0
-2264 -215 2270 0
-2270 2265 2264 0
-2270 2265 215 0
-2266 2271 0
-2265 -215 2271 0
-2271 2266 2265 0
-2271 2266 215 0
-2267 2272 0
-2266 -215 2272 0
-2272 2267 2266 0
-2272 2267 215 0
-2268 2273 0
-2267 -215 2273 0
-2273 2268 2267 0
-2273 2268 215 0
-2269 2274 0
-216 2274 0
-2274 2269 216 0
-2270 2275 0
-2269 -216 2275 0
-2275 2270 2269 0
-2275 2270 216 0
-2271 2276 0
-2270 -216 2276 0
-2276 2271 2270 0
-2276 2271 216 0
-2272 2277 0
-2271 -216 2277 0
-2277 2272 2271 0
-2277 2272 216 0
-2273 2278 0
-2272 -216 2278 0
-2278 2273 2272 0
-2278 2273 216 0
-2274 2279 0
-217 2279 0
-2279 2274 217 0
-2275 2280 0
-2274 -217 2280 0
-2280 2275 2274 0
-2280 2275 217 0
-2276 2281 0
-2275 -217 2281 0
-2281 2276 2275 0
-2281 2276 217 0
-2277 2282 0
-2276 -217 2282 0
-2282 2277 2276 0
-2282 2277 217 0
-2278 2283 0
-2277 -217 2283 0
-2283 2278 2277 0
-2283 2278 217 0
-2279 2284 0
-218 2284 0
-2284 2279 218 0
-2280 2285 0
-2279 -218 2285 0
-2285 2280 2279 0
-2285 2280 218 0
-2281 2286 0
-2280 -218 2286 0
-2286 2281 2280 0
-2286 2281 218 0
-2282 2287 0
-2281 -218 2287 0
-2287 2282 2281 0
-2287 2282 218 0
-2283 2288 0
-2282 -218 2288 0
-2288 2283 2282 0
-2288 2283 218 0
-2284 2289 0
-219 2289 0
-2289 2284 219 0
-2285 2290 0
-2284 -219 2290 0
-2290 2285 2284 0
-2290 2285 219 0
-2286 2291 0
-2285 -219 2291 0
-2291 2286 2285 0
-2291 2286 219 0
-2287 2292 0
-2286 -219 2292 0
-2292 2287 2286 0
-2292 2287 219 0
-2288 2293 0
-2287 -219 2293 0
-2293 2288 2287 0
-2293 2288 219 0
-2289 2294 0
-220 2294 0
-2294 2289 220 0
-2290 2295 0
-2289 -220 2295 0
-2295 2290 2289 0
-2295 2290 220 0
-2291 2296 0
-2290 -220 2296 0
-2296 2291 2290 0
-2296 2291 220 0
-2292 2297 0
-2291 -220 2297 0
-2297 2292 2291 0
-2297 2292 220 0
-2293 2298 0
-2292 -220 2298 0
-2298 2293 2292 0
-2298 2293 220 0
-2294 2299 0
-221 2299 0
-2299 2294 221 0
-2295 2300 0
-2294 -221 2300 0
-2300 2295 2294 0
-2300 2295 221 0
-2296 2301 0
-2295 -221 2301 0
-2301 2296 2295 0
-2301 2296 221 0
-2297 2302 0
-2296 -221 2302 0
-2302 2297 2296 0
-2302 2297 221 0
-2298 2303 0
-2297 -221 2303 0
-2303 2298 2297 0
-2303 2298 221 0
-2299 2304 0
-222 2304 0
-2304 2299 222 0
-2300 2305 0
-2299 -222 2305 0
-2305 2300 2299 0
-2305 2300 222 0
-2301 2306 0
-2300 -222 2306 0
-2306 2301 2300 0
-2306 2301 222 0
-2302 2307 0
-2301 -222 2307 0
-2307 2302 2301 0
-2307 2302 222 0
-2303 2308 0
-2302 -222 2308 0
-2308 2303 2302 0
-2308 2303 222 0
-2304 2309 0
-223 2309 0
-2309 2304 223 0
-2305 2310 0
-2304 -223 2310 0
-2310 2305 2304 0
-2310 2305 223 0
-2306 2311 0
-2305 -223 2311 0
-2311 2306 2305 0
-2311 2306 223 0
-2307 2312 0
-2306 -223 2312 0
-2312 2307 2306 0
-2312 2307 223 0
-2308 2313 0
-2307 -223 2313 0
-2313 2308 2307 0
-2313 2308 223 0
-2309 2314 0
-224 2314 0
-2314 2309 224 0
-2310 2315 0
-2309 -224 2315 0
-2315 2310 2309 0
-2315 2310 224 0
-2311 2316 0
-2310 -224 2316 0
-2316 2311 2310 0
-2316 2311 224 0
-2312 2317 0
-2311 -224 2317 0
-2317 2312 2311 0
-2317 2312 224 0
-2313 2318 0
-2312 -224 2318 0
-2318 2313 2312 0
-2318 2313 224 0
-2314 2319 0
-225 2319 0
-2319 2314 225 0
-2315 2320 0
-2314 -225 2320 0
-2320 2315 2314 0
-2320 2315 225 0
-2316 2321 0
-2315 -225 2321 0
-2321 2316 2315 0
-2321 2316 225 0
-2317 2322 0
-2316 -225 2322 0
-2322 2317 2316 0
-2322 2317 225 0
-2318 2323 0
-2317 -225 2323 0
-2323 2318 2317 0
-2323 2318 225 0
-2319 2324 0
-226 2324 0
-2324 2319 226 0
-2320 2325 0
-2319 -226 2325 0
-2325 2320 2319 0
-2325 2320 226 0
-2321 2326 0
-2320 -226 2326 0
-2326 2321 2320 0
-2326 2321 226 0
-2322 2327 0
-2321 -226 2327 0
-2327 2322 2321 0
-2327 2322 226 0
-2323 2328 0
-2322 -226 2328 0
-2328 2323 2322 0
-2328 2323 226 0
-2324 2329 0
-227 2329 0
-2329 2324 227 0
-2325 2330 0
-2324 -227 2330 0
-2330 2325 2324 0
-2330 2325 227 0
-2326 2331 0
-2325 -227 2331 0
-2331 2326 2325 0
-2331 2326 227 0
-2327 2332 0
-2326 -227 2332 0
-2332 2327 2326 0
-2332 2327 227 0
-2328 2333 0
-2327 -227 2333 0
-2333 2328 2327 0
-2333 2328 227 0
-2329 2334 0
-228 2334 0
-2334 2329 228 0
-2330 2335 0
-2329 -228 2335 0
-2335 2330 2329 0
-2335 2330 228 0
-2331 2336 0
-2330 -228 2336 0
-2336 2331 2330 0
-2336 2331 228 0
-2332 2337 0
-2331 -228 2337 0
-2337 2332 2331 0
-2337 2332 228 0
-2333 2338 0
-2332 -228 2338 0
-2338 2333 2332 0
-2338 2333 228 0
-2334 2339 0
-229 2339 0
-2339 2334 229 0
-2335 2340 0
-2334 -229 2340 0
-2340 2335 2334 0
-2340 2335 229 0
-2336 2341 0
-2335 -229 2341 0
-2341 2336 2335 0
-2341 2336 229 0
-2337 2342 0
-2336 -229 2342 0
-2342 2337 2336 0
-2342 2337 229 0
-2338 2343 0
-2337 -229 2343 0
-2343 2338 2337 0
-2343 2338 229 0
-2339 2344 0
-230 2344 0
-2344 2339 230 0
-2340 2345 0
-2339 -230 2345 0
-2345 2340 2339 0
-2345 2340 230 0
-2341 2346 0
-2340 -230 2346 0
-2346 2341 2340 0
-2346 2341 230 0
-2342 2347 0
-2341 -230 2347 0
-2347 2342 2341 0
-2347 2342 230 0
-2343 2348 0
-2342 -230 2348 0
-2348 2343 2342 0
-2348 2343 230 0
-2344 2349 0
-231 2349 0
-2349 2344 231 0
-2345 2350 0
-2344 -231 2350 0
-2350 2345 2344 0
-2350 2345 231 0
-2346 2351 0
-2345 -231 2351 0
-2351 2346 2345 0
-2351 2346 231 0
-2347 2352 0
-2346 -231 2352 0
-2352 2347 2346 0
-2352 2347 231 0
-2348 2353 0
-2347 -231 2353 0
-2353 2348 2347 0
-2353 2348 231 0
-2349 2354 0
-232 2354 0
-2354 2349 232 0
-2350 2355 0
-2349 -232 2355 0
-2355 2350 2349 0
-2355 2350 232 0
-2351 2356 0
-2350 -232 2356 0
-2356 2351 2350 0
-2356 2351 232 0
-2352 2357 0
-2351 -232 2357 0
-2357 2352 2351 0
-2357 2352 232 0
-2353 2358 0
-2352 -232 2358 0
-2358 2353 2352 0
-2358 2353 232 0
-2354 2359 0
-233 2359 0
-2359 2354 233 0
-2355 2360 0
-2354 -233 2360 0
-2360 2355 2354 0
-2360 2355 233 0
-2356 2361 0
-2355 -233 2361 0
-2361 2356 2355 0
-2361 2356 233 0
-2357 2362 0
-2356 -233 2362 0
-2362 2357 2356 0
-2362 2357 233 0
-2358 2363 0
-2357 -233 2363 0
-2363 2358 2357 0
-2363 2358 233 0
-2359 2364 0
-234 2364 0
-2364 2359 234 0
-2360 2365 0
-2359 -234 2365 0
-2365 2360 2359 0
-2365 2360 234 0
-2361 2366 0
-2360 -234 2366 0
-2366 2361 2360 0
-2366 2361 234 0
-2362 2367 0
-2361 -234 2367 0
-2367 2362 2361 0
-2367 2362 234 0
-2363 2368 0
-2362 -234 2368 0
-2368 2363 2362 0
-2368 2363 234 0
-2364 2369 0
-235 2369 0
-2369 2364 235 0
-2365 2370 0
-2364 -235 2370 0
-2370 2365 2364 0
-2370 2365 235 0
-2366 2371 0
-2365 -235 2371 0
-2371 2366 2365 0
-2371 2366 235 0
-2367 2372 0
-2366 -235 2372 0
-2372 2367 2366 0
-2372 2367 235 0
-2368 2373 0
-2367 -235 2373 0
-2373 2368 2367 0
-2373 2368 235 0
-2369 2374 0
-236 2374 0
-2374 2369 236 0
-2370 2375 0
-2369 -236 2375 0
-2375 2370 2369 0
-2375 2370 236 0
-2371 2376 0
-2370 -236 2376 0
-2376 2371 2370 0
-2376 2371 236 0
-2372 2377 0
-2371 -236 2377 0
-2377 2372 2371 0
-2377 2372 236 0
-2373 2378 0
-2372 -236 2378 0
-2378 2373 2372 0
-2378 2373 236 0
-2374 2379 0
-237 2379 0
-2379 2374 237 0
-2375 2380 0
-2374 -237 2380 0
-2380 2375 2374 0
-2380 2375 237 0
-2376 2381 0
-2375 -237 2381 0
-2381 2376 2375 0
-2381 2376 237 0
-2377 2382 0
-2376 -237 2382 0
-2382 2377 2376 0
-2382 2377 237 0
-2378 2383 0
-2377 -237 2383 0
-2383 2378 2377 0
-2383 2378 237 0
-2379 2384 0
-238 2384 0
-2384 2379 238 0
-2380 2385 0
-2379 -238 2385 0
-2385 2380 2379 0
-2385 2380 238 0
-2381 2386 0
-2380 -238 2386 0
-2386 2381 2380 0
-2386 2381 238 0
-2382 2387 0
-2381 -238 2387 0
-2387 2382 2381 0
-2387 2382 238 0
-2383 2388 0
-2382 -238 2388 0
-2388 2383 2382 0
-2388 2383 238 0
-2384 2389 0
-239 2389 0
-2389 2384 239 0
-2385 2390 0
-2384 -239 2390 0
-2390 2385 2384 0
-2390 2385 239 0
-2386 2391 0
-2385 -239 2391 0
-2391 2386 2385 0
-2391 2386 239 0
-2387 2392 0
-2386 -239 2392 0
-2392 2387 2386 0
-2392 2387 239 0
-2388 2393 0
-2387 -239 2393 0
-2393 2388 2387 0
-2393 2388 239 0
-2389 2394 0
-240 2394 0
-2394 2389 240 0
-2390 2395 0
-2389 -240 2395 0
-2395 2390 2389 0
-2395 2390 240 0
-2391 2396 0
-2390 -240 2396 0
-2396 2391 2390 0
-2396 2391 240 0
-2392 2397 0
-2391 -240 2397 0
-2397 2392 2391 0
-2397 2392 240 0
-2393 2398 0
-2392 -240 2398 0
-2398 2393 2392 0
-2398 2393 240 0
-2394 2399 0
-241 2399 0
-2399 2394 241 0
-2395 2400 0
-2394 -241 2400 0
-2400 2395 2394 0
-2400 2395 241 0
-2396 2401 0
-2395 -241 2401 0
-2401 2396 2395 0
-2401 2396 241 0
-2397 2402 0
-2396 -241 2402 0
-2402 2397 2396 0
-2402 2397 241 0
-2398 2403 0
-2397 -241 2403 0
-2403 2398 2397 0
-2403 2398 241 0
-2399 2404 0
-242 2404 0
-2404 2399 242 0
-2400 2405 0
-2399 -242 2405 0
-2405 2400 2399 0
-2405 2400 242 0
-2401 2406 0
-2400 -242 2406 0
-2406 2401 2400 0
-2406 2401 242 0
-2402 2407 0
-2401 -242 2407 0
-2407 2402 2401 0
-2407 2402 242 0
-2403 2408 0
-2402 -242 2408 0
-2408 2403 2402 0
-2408 2403 242 0
-2404 2409 0
-243 2409 0
-2409 2404 243 0
-2405 2410 0
-2404 -243 2410 0
-2410 2405 2404 0
-2410 2405 243 0
-2406 2411 0
-2405 -243 2411 0
-2411 2406 2405 0
-2411 2406 243 0
-2407 2412 0
-2406 -243 2412 0
-2412 2407 2406 0
-2412 2407 243 0
-2408 2413 0
-2407 -243 2413 0
-2413 2408 2407 0
-2413 2408 243 0
-2409 2414 0
-244 2414 0
-2414 2409 244 0
-2410 2415 0
-2409 -244 2415 0
-2415 2410 2409 0
-2415 2410 244 0
-2411 2416 0
-2410 -244 2416 0
-2416 2411 2410 0
-2416 2411 244 0
-2412 2417 0
-2411 -244 2417 0
-2417 2412 2411 0
-2417 2412 244 0
-2413 2418 0
-2412 -244 2418 0
-2418 2413 2412 0
-2418 2413 244 0
-2414 2419 0
-245 2419 0
-2419 2414 245 0
-2415 2420 0
-2414 -245 2420 0
-2420 2415 2414 0
-2420 2415 245 0
-2416 2421 0
-2415 -245 2421 0
-2421 2416 2415 0
-2421 2416 245 0
-2417 2422 0
-2416 -245 2422 0
-2422 2417 2416 0
-2422 2417 245 0
-2418 2423 0
-2417 -245 2423 0
-2423 2418 2417 0
-2423 2418 245 0
-2419 2424 0
-246 2424 0
-2424 2419 246 0
-2420 2425 0
-2419 -246 2425 0
-2425 2420 2419 0
-2425 2420 246 0
-2421 2426 0
-2420 -246 2426 0
-2426 2421 2420 0
-2426 2421 246 0
-2422 2427 0
-2421 -246 2427 0
-2427 2422 2421 0
-2427 2422 246 0
-2423 2428 0
-2422 -246 2428 0
-2428 2423 2422 0
-2428 2423 246 0
-2424 2429 0
-247 2429 0
-2429 2424 247 0
-2425 2430 0
-2424 -247 2430 0
-2430 2425 2424 0
-2430 2425 247 0
-2426 2431 0
-2425 -247 2431 0
-2431 2426 2425 0
-2431 2426 247 0
-2427 2432 0
-2426 -247 2432 0
-2432 2427 2426 0
-2432 2427 247 0
-2428 2433 0
-2427 -247 2433 0
-2433 2428 2427 0
-2433 2428 247 0
-2429 2434 0
-248 2434 0
-2434 2429 248 0
-2430 2435 0
-2429 -248 2435 0
-2435 2430 2429 0
-2435 2430 248 0
-2431 2436 0
-2430 -248 2436 0
-2436 2431 2430 0
-2436 2431 248 0
-2432 2437 0
-2431 -248 2437 0
-2437 2432 2431 0
-2437 2432 248 0
-2433 2438 0
-2432 -248 2438 0
-2438 2433 2432 0
-2438 2433 248 0
-2434 2439 0
-249 2439 0
-2439 2434 249 0
-2435 2440 0
-2434 -249 2440 0
-2440 2435 2434 0
-2440 2435 249 0
-2436 2441 0
-2435 -249 2441 0
-2441 2436 2435 0
-2441 2436 249 0
-2437 2442 0
-2436 -249 2442 0
-2442 2437 2436 0
-2442 2437 249 0
-2438 2443 0
-2437 -249 2443 0
-2443 2438 2437 0
-2443 2438 249 0
-2439 2444 0
-250 2444 0
-2444 2439 250 0
-2440 2445 0
-2439 -250 2445 0
-2445 2440 2439 0
-2445 2440 250 0
-2441 2446 0
-2440 -250 2446 0
-2446 2441 2440 0
-2446 2441 250 0
-2442 2447 0
-2441 -250 2447 0
-2447 2442 2441 0
-2447 2442 250 0
-2443 2448 0
-2442 -250 2448 0
-2448 2443 2442 0
-2448 2443 250 0
-2444 2449 0
-251 2449 0
-2449 2444 251 0
-2445 2450 0
-2444 -251 2450 0
-2450 2445 2444 0
-2450 2445 251 0
-2446 2451 0
-2445 -251 2451 0
-2451 2446 2445 0
-2451 2446 251 0
-2447 2452 0
-2446 -251 2452 0
-2452 2447 2446 0
-2452 2447 251 0
-2448 2453 0
-2447 -251 2453 0
-2453 2448 2447 0
-2453 2448 251 0
-2449 2454 0
-252 2454 0
-2454 2449 252 0
-2450 2455 0
-2449 -252 2455 0
-2455 2450 2449 0
-2455 2450 252 0
-2451 2456 0
-2450 -252 2456 0
-2456 2451 2450 0
-2456 2451 252 0
-2452 2457 0
-2451 -252 2457 0
-2457 2452 2451 0
-2457 2452 252 0
-2453 2458 0
-2452 -252 2458 0
-2458 2453 2452 0
-2458 2453 252 0
-2454 2459 0
-253 2459 0
-2459 2454 253 0
-2455 2460 0
-2454 -253 2460 0
-2460 2455 2454 0
-2460 2455 253 0
-2456 2461 0
-2455 -253 2461 0
-2461 2456 2455 0
-2461 2456 253 0
-2457 2462 0
-2456 -253 2462 0
-2462 2457 2456 0
-2462 2457 253 0
-2458 2463 0
-2457 -253 2463 0
-2463 2458 2457 0
-2463 2458 253 0
-2459 2464 0
-254 2464 0
-2464 2459 254 0
-2460 2465 0
-2459 -254 2465 0
-2465 2460 2459 0
-2465 2460 254 0
-2461 2466 0
-2460 -254 2466 0
-2466 2461 2460 0
-2466 2461 254 0
-2462 2467 0
-2461 -254 2467 0
-2467 2462 2461 0
-2467 2462 254 0
-2463 2468 0
-2462 -254 2468 0
-2468 2463 2462 0
-2468 2463 254 0
-2464 2469 0
-255 2469 0
-2469 2464 255 0
-2465 2470 0
-2464 -255 2470 0
-2470 2465 2464 0
-2470 2465 255 0
-2466 2471 0
-2465 -255 2471 0
-2471 2466 2465 0
-2471 2466 255 0
-2467 2472 0
-2466 -255 2472 0
-2472 2467 2466 0
-2472 2467 255 0
-2468 2473 0
-2467 -255 2473 0
-2473 2468 2467 0
-2473 2468 255 0
-2469 2474 0
-256 2474 0
-2474 2469 256 0
-2470 2475 0
-2469 -256 2475 0
-2475 2470 2469 0
-2475 2470 256 0
-2471 2476 0
-2470 -256 2476 0
-2476 2471 2470 0
-2476 2471 256 0
-2472 2477 0
-2471 -256 2477 0
-2477 2472 2471 0
-2477 2472 256 0
-2473 2478 0
-2472 -256 2478 0
-2478 2473 2472 0
-2478 2473 256 0
-2474 2479 0
-257 2479 0
-2479 2474 257 0
-2475 2480 0
-2474 -257 2480 0
-2480 2475 2474 0
-2480 2475 257 0
-2476 2481 0
-2475 -257 2481 0
-2481 2476 2475 0
-2481 2476 257 0
-2477 2482 0
-2476 -257 2482 0
-2482 2477 2476 0
-2482 2477 257 0
-2478 2483 0
-2477 -257 2483 0
-2483 2478 2477 0
-2483 2478 257 0
-2479 2484 0
-258 2484 0
-2484 2479 258 0
-2480 2485 0
-2479 -258 2485 0
-2485 2480 2479 0
-2485 2480 258 0
-2481 2486 0
-2480 -258 2486 0
-2486 2481 2480 0
-2486 2481 258 0
-2482 2487 0
-2481 -258 2487 0
-2487 2482 2481 0
-2487 2482 258 0
-2483 2488 0
-2482 -258 2488 0
-2488 2483 2482 0
-2488 2483 258 0
-2484 2489 0
-259 2489 0
-2489 2484 259 0
-2485 2490 0
-2484 -259 2490 0
-2490 2485 2484 0
-2490 2485 259 0
-2486 2491 0
-2485 -259 2491 0
-2491 2486 2485 0
-2491 2486 259 0
-2487 2492 0
-2486 -259 2492 0
-2492 2487 2486 0
-2492 2487 259 0
-2488 2493 0
-2487 -259 2493 0
-2493 2488 2487 0
-2493 2488 259 0
-2489 2494 0
-260 2494 0
-2494 2489 260 0
-2490 2495 0
-2489 -260 2495 0
-2495 2490 2489 0
-2495 2490 260 0
-2491 2496 0
-2490 -260 2496 0
-2496 2491 2490 0
-2496 2491 260 0
-2492 2497 0
-2491 -260 2497 0
-2497 2492 2491 0
-2497 2492 260 0
-2493 2498 0
-2492 -260 2498 0
-2498 2493 2492 0
-2498 2493 260 0
-2494 2499 0
-261 2499 0
-2499 2494 261 0
-2495 2500 0
-2494 -261 2500 0
-2500 2495 2494 0
-2500 2495 261 0
-2496 2501 0
-2495 -261 2501 0
-2501 2496 2495 0
-2501 2496 261 0
-2497 2502 0
-2496 -261 2502 0
-2502 2497 2496 0
-2502 2497 261 0
-2498 2503 0
-2497 -261 2503 0
-2503 2498 2497 0
-2503 2498 261 0
-2499 2504 0
-262 2504 0
-2504 2499 262 0
-2500 2505 0
-2499 -262 2505 0
-2505 2500 2499 0
-2505 2500 262 0
-2501 2506 0
-2500 -262 2506 0
-2506 2501 2500 0
-2506 2501 262 0
-2502 2507 0
-2501 -262 2507 0
-2507 2502 2501 0
-2507 2502 262 0
-2503 2508 0
-2502 -262 2508 0
-2508 2503 2502 0
-2508 2503 262 0
-2504 2509 0
-263 2509 0
-2509 2504 263 0
-2505 2510 0
-2504 -263 2510 0
-2510 2505 2504 0
-2510 2505 263 0
-2506 2511 0
-2505 -263 2511 0
-2511 2506 2505 0
-2511 2506 263 0
-2507 2512 0
-2506 -263 2512 0
-2512 2507 2506 0
-2512 2507 263 0
-2508 2513 0
-2507 -263 2513 0
-2513 2508 2507 0
-2513 2508 263 0
-2509 2514 0
-264 2514 0
-2514 2509 264 0
-2510 2515 0
-2509 -264 2515 0
-2515 2510 2509 0
-2515 2510 264 0
-2511 2516 0
-2510 -264 2516 0
-2516 2511 2510 0
-2516 2511 264 0
-2512 2517 0
-2511 -264 2517 0
-2517 2512 2511 0
-2517 2512 264 0
-2513 2518 0
-2512 -264 2518 0
-2518 2513 2512 0
-2518 2513 264 0
-2514 2519 0
-265 2519 0
-2519 2514 265 0
-2515 2520 0
-2514 -265 2520 0
-2520 2515 2514 0
-2520 2515 265 0
-2516 2521 0
-2515 -265 2521 0
-2521 2516 2515 0
-2521 2516 265 0
-2517 2522 0
-2516 -265 2522 0
-2522 2517 2516 0
-2522 2517 265 0
-2518 2523 0
-2517 -265 2523 0
-2523 2518 2517 0
-2523 2518 265 0
-2519 2524 0
-266 2524 0
-2524 2519 266 0
-2520 2525 0
-2519 -266 2525 0
-2525 2520 2519 0
-2525 2520 266 0
-2521 2526 0
-2520 -266 2526 0
-2526 2521 2520 0
-2526 2521 266 0
-2522 2527 0
-2521 -266 2527 0
-2527 2522 2521 0
-2527 2522 266 0
-2523 2528 0
-2522 -266 2528 0
-2528 2523 2522 0
-2528 2523 266 0
-2524 2529 0
-267 2529 0
-2529 2524 267 0
-2525 2530 0
-2524 -267 2530 0
-2530 2525 2524 0
-2530 2525 267 0
-2526 2531 0
-2525 -267 2531 0
-2531 2526 2525 0
-2531 2526 267 0
-2527 2532 0
-2526 -267 2532 0
-2532 2527 2526 0
-2532 2527 267 0
-2528 2533 0
-2527 -267 2533 0
-2533 2528 2527 0
-2533 2528 267 0
-2529 2534 0
-268 2534 0
-2534 2529 268 0
-2530 2535 0
-2529 -268 2535 0
-2535 2530 2529 0
-2535 2530 268 0
-2531 2536 0
-2530 -268 2536 0
-2536 2531 2530 0
-2536 2531 268 0
-2532 2537 0
-2531 -268 2537 0
-2537 2532 2531 0
-2537 2532 268 0
-2533 2538 0
-2532 -268 2538 0
-2538 2533 2532 0
-2538 2533 268 0
-2534 2539 0
-269 2539 0
-2539 2534 269 0
-2535 2540 0
-2534 -269 2540 0
-2540 2535 2534 0
-2540 2535 269 0
-2536 2541 0
-2535 -269 2541 0
-2541 2536 2535 0
-2541 2536 269 0
-2537 2542 0
-2536 -269 2542 0
-2542 2537 2536 0
-2542 2537 269 0
-2538 2543 0
-2537 -269 2543 0
-2543 2538 2537 0
-2543 2538 269 0
-2539 2544 0
-270 2544 0
-2544 2539 270 0
-2540 2545 0
-2539 -270 2545 0
-2545 2540 2539 0
-2545 2540 270 0
-2541 2546 0
-2540 -270 2546 0
-2546 2541 2540 0
-2546 2541 270 0
-2542 2547 0
-2541 -270 2547 0
-2547 2542 2541 0
-2547 2542 270 0
-2543 2548 0
-2542 -270 2548 0
-2548 2543 2542 0
-2548 2543 270 0
-2544 2549 0
-271 2549 0
-2549 2544 271 0
-2545 2550 0
-2544 -271 2550 0
-2550 2545 2544 0
-2550 2545 271 0
-2546 2551 0
-2545 -271 2551 0
-2551 2546 2545 0
-2551 2546 271 0
-2547 2552 0
-2546 -271 2552 0
-2552 2547 2546 0
-2552 2547 271 0
-2548 2553 0
-2547 -271 2553 0
-2553 2548 2547 0
-2553 2548 271 0
-2549 2554 0
-272 2554 0
-2554 2549 272 0
-2550 2555 0
-2549 -272 2555 0
-2555 2550 2549 0
-2555 2550 272 0
-2551 2556 0
-2550 -272 2556 0
-2556 2551 2550 0
-2556 2551 272 0
-2552 2557 0
-2551 -272 2557 0
-2557 2552 2551 0
-2557 2552 272 0
-2553 2558 0
-2552 -272 2558 0
-2558 2553 2552 0
-2558 2553 272 0
-2554 2559 0
-273 2559 0
-2559 2554 273 0
-2555 2560 0
-2554 -273 2560 0
-2560 2555 2554 0
-2560 2555 273 0
-2556 2561 0
-2555 -273 2561 0
-2561 2556 2555 0
-2561 2556 273 0
-2557 2562 0
-2556 -273 2562 0
-2562 2557 2556 0
-2562 2557 273 0
-2558 2563 0
-2557 -273 2563 0
-2563 2558 2557 0
-2563 2558 273 0
-2559 2564 0
-274 2564 0
-2564 2559 274 0
-2560 2565 0
-2559 -274 2565 0
-2565 2560 2559 0
-2565 2560 274 0
-2561 2566 0
-2560 -274 2566 0
-2566 2561 2560 0
-2566 2561 274 0
-2562 2567 0
-2561 -274 2567 0
-2567 2562 2561 0
-2567 2562 274 0
-2563 2568 0
-2562 -274 2568 0
-2568 2563 2562 0
-2568 2563 274 0
-2564 2569 0
-275 2569 0
-2569 2564 275 0
-2565 2570 0
-2564 -275 2570 0
-2570 2565 2564 0
-2570 2565 275 0
-2566 2571 0
-2565 -275 2571 0
-2571 2566 2565 0
-2571 2566 275 0
-2567 2572 0
-2566 -275 2572 0
-2572 2567 2566 0
-2572 2567 275 0
-2568 2573 0
-2567 -275 2573 0
-2573 2568 2567 0
-2573 2568 275 0
-2569 2574 0
-276 2574 0
-2574 2569 276 0
-2570 2575 0
-2569 -276 2575 0
-2575 2570 2569 0
-2575 2570 276 0
-2571 2576 0
-2570 -276 2576 0
-2576 2571 2570 0
-2576 2571 276 0
-2572 2577 0
-2571 -276 2577 0
-2577 2572 2571 0
-2577 2572 276 0
-2573 2578 0
-2572 -276 2578 0
-2578 2573 2572 0
-2578 2573 276 0
-2574 2579 0
-277 2579 0
-2579 2574 277 0
-2575 2580 0
-2574 -277 2580 0
-2580 2575 2574 0
-2580 2575 277 0
-2576 2581 0
-2575 -277 2581 0
-2581 2576 2575 0
-2581 2576 277 0
-2577 2582 0
-2576 -277 2582 0
-2582 2577 2576 0
-2582 2577 277 0
-2578 2583 0
-2577 -277 2583 0
-2583 2578 2577 0
-2583 2578 277 0
-2579 2584 0
-278 2584 0
-2584 2579 278 0
-2580 2585 0
-2579 -278 2585 0
-2585 2580 2579 0
-2585 2580 278 0
-2581 2586 0
-2580 -278 2586 0
-2586 2581 2580 0
-2586 2581 278 0
-2582 2587 0
-2581 -278 2587 0
-2587 2582 2581 0
-2587 2582 278 0
-2583 2588 0
-2582 -278 2588 0
-2588 2583 2582 0
-2588 2583 278 0
-2584 2589 0
-279 2589 0
-2589 2584 279 0
-2585 2590 0
-2584 -279 2590 0
-2590 2585 2584 0
-2590 2585 279 0
-2586 2591 0
-2585 -279 2591 0
-2591 2586 2585 0
-2591 2586 279 0
-2587 2592 0
-2586 -279 2592 0
-2592 2587 2586 0
-2592 2587 279 0
-2588 2593 0
-2587 -279 2593 0
-2593 2588 2587 0
-2593 2588 279 0
-2589 2594 0
-280 2594 0
-2594 2589 280 0
-2590 2595 0
-2589 -280 2595 0
-2595 2590 2589 0
-2595 2590 280 0
-2591 2596 0
-2590 -280 2596 0
-2596 2591 2590 0
-2596 2591 280 0
-2592 2597 0
-2591 -280 2597 0
-2597 2592 2591 0
-2597 2592 280 0
-2593 2598 0
-2592 -280 2598 0
-2598 2593 2592 0
-2598 2593 280 0
-2594 2599 0
-281 2599 0
-2599 2594 281 0
-2595 2600 0
-2594 -281 2600 0
-2600 2595 2594 0
-2600 2595 281 0
-2596 2601 0
-2595 -281 2601 0
-2601 2596 2595 0
-2601 2596 281 0
-2597 2602 0
-2596 -281 2602 0
-2602 2597 2596 0
-2602 2597 281 0
-2598 2603 0
-2597 -281 2603 0
-2603 2598 2597 0
-2603 2598 281 0
-2599 2604 0
-282 2604 0
-2604 2599 282 0
-2600 2605 0
-2599 -282 2605 0
-2605 2600 2599 0
-2605 2600 282 0
-2601 2606 0
-2600 -282 2606 0
-2606 2601 2600 0
-2606 2601 282 0
-2602 2607 0
-2601 -282 2607 0
-2607 2602 2601 0
-2607 2602 282 0
-2603 2608 0
-2602 -282 2608 0
-2608 2603 2602 0
-2608 2603 282 0
-2604 2609 0
-283 2609 0
-2609 2604 283 0
-2605 2610 0
-2604 -283 2610 0
-2610 2605 2604 0
-2610 2605 283 0
-2606 2611 0
-2605 -283 2611 0
-2611 2606 2605 0
-2611 2606 283 0
-2607 2612 0
-2606 -283 2612 0
-2612 2607 2606 0
-2612 2607 283 0
-2608 2613 0
-2607 -283 2613 0
-2613 2608 2607 0
-2613 2608 283 0
-2609 2614 0
-284 2614 0
-2614 2609 284 0
-2610 2615 0
-2609 -284 2615 0
-2615 2610 2609 0
-2615 2610 284 0
-2611 2616 0
-2610 -284 2616 0
-2616 2611 2610 0
-2616 2611 284 0
-2612 2617 0
-2611 -284 2617 0
-2617 2612 2611 0
-2617 2612 284 0
-2613 2618 0
-2612 -284 2618 0
-2618 2613 2612 0
-2618 2613 284 0
-2614 2619 0
-285 2619 0
-2619 2614 285 0
-2615 2620 0
-2614 -285 2620 0
-2620 2615 2614 0
-2620 2615 285 0
-2616 2621 0
-2615 -285 2621 0
-2621 2616 2615 0
-2621 2616 285 0
-2617 2622 0
-2616 -285 2622 0
-2622 2617 2616 0
-2622 2617 285 0
-2618 2623 0
-2617 -285 2623 0
-2623 2618 2617 0
-2623 2618 285 0
-2619 2624 0
-286 2624 0
-2624 2619 286 0
-2620 2625 0
-2619 -286 2625 0
-2625 2620 2619 0
-2625 2620 286 0
-2621 2626 0
-2620 -286 2626 0
-2626 2621 2620 0
-2626 2621 286 0
-2622 2627 0
-2621 -286 2627 0
-2627 2622 2621 0
-2627 2622 286 0
-2623 2628 0
-2622 -286 2628 0
-2628 2623 2622 0
-2628 2623 286 0
-2624 2629 0
-287 2629 0
-2629 2624 287 0
-2625 2630 0
-2624 -287 2630 0
-2630 2625 2624 0
-2630 2625 287 0
-2626 2631 0
-2625 -287 2631 0
-2631 2626 2625 0
-2631 2626 287 0
-2627 2632 0
-2626 -287 2632 0
-2632 2627 2626 0
-2632 2627 287 0
-2628 2633 0
-2627 -287 2633 0
-2633 2628 2627 0
-2633 2628 287 0
-2629 2634 0
-288 2634 0
-2634 2629 288 0
-2630 2635 0
-2629 -288 2635 0
-2635 2630 2629 0
-2635 2630 288 0
-2631 2636 0
-2630 -288 2636 0
-2636 2631 2630 0
-2636 2631 288 0
-2632 2637 0
-2631 -288 2637 0
-2637 2632 2631 0
-2637 2632 288 0
-2633 2638 0
-2632 -288 2638 0
-2638 2633 2632 0
-2638 2633 288 0
-2634 2639 0
-289 2639 0
-2639 2634 289 0
-2635 2640 0
-2634 -289 2640 0
-2640 2635 2634 0
-2640 2635 289 0
-2636 2641 0
-2635 -289 2641 0
-2641 2636 2635 0
-2641 2636 289 0
-2637 2642 0
-2636 -289 2642 0
-2642 2637 2636 0
-2642 2637 289 0
-2638 2643 0
-2637 -289 2643 0
-2643 2638 2637 0
-2643 2638 289 0
-2639 2644 0
-290 2644 0
-2644 2639 290 0
-2640 2645 0
-2639 -290 2645 0
-2645 2640 2639 0
-2645 2640 290 0
-2641 2646 0
-2640 -290 2646 0
-2646 2641 2640 0
-2646 2641 290 0
-2642 2647 0
-2641 -290 2647 0
-2647 2642 2641 0
-2647 2642 290 0
-2643 2648 0
-2642 -290 2648 0
-2648 2643 2642 0
-2648 2643 290 0
-2644 2649 0
-291 2649 0
-2649 2644 291 0
-2645 2650 0
-2644 -291 2650 0
-2650 2645 2644 0
-2650 2645 291 0
-2646 2651 0
-2645 -291 2651 0
-2651 2646 2645 0
-2651 2646 291 0
-2647 2652 0
-2646 -291 2652 0
-2652 2647 2646 0
-2652 2647 291 0
-2648 2653 0
-2647 -291 2653 0
-2653 2648 2647 0
-2653 2648 291 0
-2649 2654 0
-292 2654 0
-2654 2649 292 0
-2650 2655 0
-2649 -292 2655 0
-2655 2650 2649 0
-2655 2650 292 0
-2651 2656 0
-2650 -292 2656 0
-2656 2651 2650 0
-2656 2651 292 0
-2652 2657 0
-2651 -292 2657 0
-2657 2652 2651 0
-2657 2652 292 0
-2653 2658 0
-2652 -292 2658 0
-2658 2653 2652 0
-2658 2653 292 0
-2654 2659 0
-293 2659 0
-2659 2654 293 0
-2655 2660 0
-2654 -293 2660 0
-2660 2655 2654 0
-2660 2655 293 0
-2656 2661 0
-2655 -293 2661 0
-2661 2656 2655 0
-2661 2656 293 0
-2657 2662 0
-2656 -293 2662 0
-2662 2657 2656 0
-2662 2657 293 0
-2658 2663 0
-2657 -293 2663 0
-2663 2658 2657 0
-2663 2658 293 0
-2659 2664 0
-294 2664 0
-2664 2659 294 0
-2660 2665 0
-2659 -294 2665 0
-2665 2660 2659 0
-2665 2660 294 0
-2661 2666 0
-2660 -294 2666 0
-2666 2661 2660 0
-2666 2661 294 0
-2662 2667 0
-2661 -294 2667 0
-2667 2662 2661 0
-2667 2662 294 0
-2663 2668 0
-2662 -294 2668 0
-2668 2663 2662 0
-2668 2663 294 0
-2664 2669 0
-295 2669 0
-2669 2664 295 0
-2665 2670 0
-2664 -295 2670 0
-2670 2665 2664 0
-2670 2665 295 0
-2666 2671 0
-2665 -295 2671 0
-2671 2666 2665 0
-2671 2666 295 0
-2667 2672 0
-2666 -295 2672 0
-2672 2667 2666 0
-2672 2667 295 0
-2668 2673 0
-2667 -295 2673 0
-2673 2668 2667 0
-2673 2668 295 0
-2669 2674 0
-296 2674 0
-2674 2669 296 0
-2670 2675 0
-2669 -296 2675 0
-2675 2670 2669 0
-2675 2670 296 0
-2671 2676 0
-2670 -296 2676 0
-2676 2671 2670 0
-2676 2671 296 0
-2672 2677 0
-2671 -296 2677 0
-2677 2672 2671 0
-2677 2672 296 0
-2673 2678 0
-2672 -296 2678 0
-2678 2673 2672 0
-2678 2673 296 0
-2674 2679 0
-297 2679 0
-2679 2674 297 0
-2675 2680 0
-2674 -297 2680 0
-2680 2675 2674 0
-2680 2675 297 0
-2676 2681 0
-2675 -297 2681 0
-2681 2676 2675 0
-2681 2676 297 0
-2677 2682 0
-2676 -297 2682 0
-2682 2677 2676 0
-2682 2677 297 0
-2678 2683 0
-2677 -297 2683 0
-2683 2678 2677 0
-2683 2678 297 0
-2679 2684 0
-298 2684 0
-2684 2679 298 0
-2680 2685 0
-2679 -298 2685 0
-2685 2680 2679 0
-2685 2680 298 0
-2681 2686 0
-2680 -298 2686 0
-2686 2681 2680 0
-2686 2681 298 0
-2682 2687 0
-2681 -298 2687 0
-2687 2682 2681 0
-2687 2682 298 0
-2683 2688 0
-2682 -298 2688 0
-2688 2683 2682 0
-2688 2683 298 0
-2684 2689 0
-299 2689 0
-2689 2684 299 0
-2685 2690 0
-2684 -299 2690 0
-2690 2685 2684 0
-2690 2685 299 0
-2686 2691 0
-2685 -299 2691 0
-2691 2686 2685 0
-2691 2686 299 0
-2687 2692 0
-2686 -299 2692 0
-2692 2687 2686 0
-2692 2687 299 0
-2688 2693 0
-2687 -299 2693 0
-2693 2688 2687 0
-2693 2688 299 0
-2689 2694 0
-300 2694 0
-2694 2689 300 0
-2690 2695 0
-2689 -300 2695 0
-2695 2690 2689 0
-2695 2690 300 0
-2691 2696 0
-2690 -300 2696 0
-2696 2691 2690 0
-2696 2691 300 0
-2692 2697 0
-2691 -300 2697 0
-2697 2692 2691 0
-2697 2692 300 0
-2693 2698 0
-2692 -300 2698 0
-2698 2693 2692 0
-2698 2693 300 0
-2694 2699 0
-301 2699 0
-2699 2694 301 0
-2695 2700 0
-2694 -301 2700 0
-2700 2695 2694 0
-2700 2695 301 0
-2696 2701 0
-2695 -301 2701 0
-2701 2696 2695 0
-2701 2696 301 0
-2697 2702 0
-2696 -301 2702 0
-2702 2697 2696 0
-2702 2697 301 0
-2698 2703 0
-2697 -301 2703 0
-2703 2698 2697 0
-2703 2698 301 0
-2699 2704 0
-302 2704 0
-2704 2699 302 0
-2700 2705 0
-2699 -302 2705 0
-2705 2700 2699 0
-2705 2700 302 0
-2701 2706 0
-2700 -302 2706 0
-2706 2701 2700 0
-2706 2701 302 0
-2702 2707 0
-2701 -302 2707 0
-2707 2702 2701 0
-2707 2702 302 0
-2703 2708 0
-2702 -302 2708 0
-2708 2703 2702 0
-2708 2703 302 0
-2704 2709 0
-303 2709 0
-2709 2704 303 0
-2705 2710 0
-2704 -303 2710 0
-2710 2705 2704 0
-2710 2705 303 0
-2706 2711 0
-2705 -303 2711 0
-2711 2706 2705 0
-2711 2706 303 0
-2707 2712 0
-2706 -303 2712 0
-2712 2707 2706 0
-2712 2707 303 0
-2708 2713 0
-2707 -303 2713 0
-2713 2708 2707 0
-2713 2708 303 0
-2709 2714 0
-304 2714 0
-2714 2709 304 0
-2710 2715 0
-2709 -304 2715 0
-2715 2710 2709 0
-2715 2710 304 0
-2711 2716 0
-2710 -304 2716 0
-2716 2711 2710 0
-2716 2711 304 0
-2712 2717 0
-2711 -304 2717 0
-2717 2712 2711 0
-2717 2712 304 0
-2713 2718 0
-2712 -304 2718 0
-2718 2713 2712 0
-2718 2713 304 0
-2714 2719 0
-305 2719 0
-2719 2714 305 0
-2715 2720 0
-2714 -305 2720 0
-2720 2715 2714 0
-2720 2715 305 0
-2716 2721 0
-2715 -305 2721 0
-2721 2716 2715 0
-2721 2716 305 0
-2717 2722 0
-2716 -305 2722 0
-2722 2717 2716 0
-2722 2717 305 0
-2718 2723 0
-2717 -305 2723 0
-2723 2718 2717 0
-2723 2718 305 0
-2719 2724 0
-306 2724 0
-2724 2719 306 0
-2720 2725 0
-2719 -306 2725 0
-2725 2720 2719 0
-2725 2720 306 0
-2721 2726 0
-2720 -306 2726 0
-2726 2721 2720 0
-2726 2721 306 0
-2722 2727 0
-2721 -306 2727 0
-2727 2722 2721 0
-2727 2722 306 0
-2723 2728 0
-2722 -306 2728 0
-2728 2723 2722 0
-2728 2723 306 0
-2724 2729 0
-307 2729 0
-2729 2724 307 0
-2725 2730 0
-2724 -307 2730 0
-2730 2725 2724 0
-2730 2725 307 0
-2726 2731 0
-2725 -307 2731 0
-2731 2726 2725 0
-2731 2726 307 0
-2727 2732 0
-2726 -307 2732 0
-2732 2727 2726 0
-2732 2727 307 0
-2728 2733 0
-2727 -307 2733 0
-2733 2728 2727 0
-2733 2728 307 0
-2729 2734 0
-308 2734 0
-2734 2729 308 0
-2730 2735 0
-2729 -308 2735 0
-2735 2730 2729 0
-2735 2730 308 0
-2731 2736 0
-2730 -308 2736 0
-2736 2731 2730 0
-2736 2731 308 0
-2732 2737 0
-2731 -308 2737 0
-2737 2732 2731 0
-2737 2732 308 0
-2733 2738 0
-2732 -308 2738 0
-2738 2733 2732 0
-2738 2733 308 0
-2734 2739 0
-309 2739 0
-2739 2734 309 0
-2735 2740 0
-2734 -309 2740 0
-2740 2735 2734 0
-2740 2735 309 0
-2736 2741 0
-2735 -309 2741 0
-2741 2736 2735 0
-2741 2736 309 0
-2737 2742 0
-2736 -309 2742 0
-2742 2737 2736 0
-2742 2737 309 0
-2738 2743 0
-2737 -309 2743 0
-2743 2738 2737 0
-2743 2738 309 0
-2739 2744 0
-310 2744 0
-2744 2739 310 0
-2740 2745 0
-2739 -310 2745 0
-2745 2740 2739 0
-2745 2740 310 0
-2741 2746 0
-2740 -310 2746 0
-2746 2741 2740 0
-2746 2741 310 0
-2742 2747 0
-2741 -310 2747 0
-2747 2742 2741 0
-2747 2742 310 0
-2743 2748 0
-2742 -310 2748 0
-2748 2743 2742 0
-2748 2743 310 0
-2744 2749 0
-311 2749 0
-2749 2744 311 0
-2745 2750 0
-2744 -311 2750 0
-2750 2745 2744 0
-2750 2745 311 0
-2746 2751 0
-2745 -311 2751 0
-2751 2746 2745 0
-2751 2746 311 0
-2747 2752 0
-2746 -311 2752 0
-2752 2747 2746 0
-2752 2747 311 0
-2748 2753 0
-2747 -311 2753 0
-2753 2748 2747 0
-2753 2748 311 0
-2749 2754 0
-312 2754 0
-2754 2749 312 0
-2750 2755 0
-2749 -312 2755 0
-2755 2750 2749 0
-2755 2750 312 0
-2751 2756 0
-2750 -312 2756 0
-2756 2751 2750 0
-2756 2751 312 0
-2752 2757 0
-2751 -312 2757 0
-2757 2752 2751 0
-2757 2752 312 0
-2753 2758 0
-2752 -312 2758 0
-2758 2753 2752 0
-2758 2753 312 0
-2754 2759 0
-313 2759 0
-2759 2754 313 0
-2755 2760 0
-2754 -313 2760 0
-2760 2755 2754 0
-2760 2755 313 0
-2756 2761 0
-2755 -313 2761 0
-2761 2756 2755 0
-2761 2756 313 0
-2757 2762 0
-2756 -313 2762 0
-2762 2757 2756 0
-2762 2757 313 0
-2758 2763 0
-2757 -313 2763 0
-2763 2758 2757 0
-2763 2758 313 0
-2759 2764 0
-314 2764 0
-2764 2759 314 0
-2760 2765 0
-2759 -314 2765 0
-2765 2760 2759 0
-2765 2760 314 0
-2761 2766 0
-2760 -314 2766 0
-2766 2761 2760 0
-2766 2761 314 0
-2762 2767 0
-2761 -314 2767 0
-2767 2762 2761 0
-2767 2762 314 0
-2763 2768 0
-2762 -314 2768 0
-2768 2763 2762 0
-2768 2763 314 0
-2764 2769 0
-315 2769 0
-2769 2764 315 0
-2765 2770 0
-2764 -315 2770 0
-2770 2765 2764 0
-2770 2765 315 0
-2766 2771 0
-2765 -315 2771 0
-2771 2766 2765 0
-2771 2766 315 0
-2767 2772 0
-2766 -315 2772 0
-2772 2767 2766 0
-2772 2767 315 0
-2768 2773 0
-2767 -315 2773 0
-2773 2768 2767 0
-2773 2768 315 0
-2769 2774 0
-316 2774 0
-2774 2769 316 0
-2770 2775 0
-2769 -316 2775 0
-2775 2770 2769 0
-2775 2770 316 0
-2771 2776 0
-2770 -316 2776 0
-2776 2771 2770 0
-2776 2771 316 0
-2772 2777 0
-2771 -316 2777 0
-2777 2772 2771 0
-2777 2772 316 0
-2773 2778 0
-2772 -316 2778 0
-2778 2773 2772 0
-2778 2773 316 0
-2774 2779 0
-317 2779 0
-2779 2774 317 0
-2775 2780 0
-2774 -317 2780 0
-2780 2775 2774 0
-2780 2775 317 0
-2776 2781 0
-2775 -317 2781 0
-2781 2776 2775 0
-2781 2776 317 0
-2777 2782 0
-2776 -317 2782 0
-2782 2777 2776 0
-2782 2777 317 0
-2778 2783 0
-2777 -317 2783 0
-2783 2778 2777 0
-2783 2778 317 0
-2779 2784 0
-318 2784 0
-2784 2779 318 0
-2780 2785 0
-2779 -318 2785 0
-2785 2780 2779 0
-2785 2780 318 0
-2781 2786 0
-2780 -318 2786 0
-2786 2781 2780 0
-2786 2781 318 0
-2782 2787 0
-2781 -318 2787 0
-2787 2782 2781 0
-2787 2782 318 0
-2783 2788 0
-2782 -318 2788 0
-2788 2783 2782 0
-2788 2783 318 0
-2784 2789 0
-319 2789 0
-2789 2784 319 0
-2785 2790 0
-2784 -319 2790 0
-2790 2785 2784 0
-2790 2785 319 0
-2786 2791 0
-2785 -319 2791 0
-2791 2786 2785 0
-2791 2786 319 0
-2787 2792 0
-2786 -319 2792 0
-2792 2787 2786 0
-2792 2787 319 0
-2788 2793 0
-2787 -319 2793 0
-2793 2788 2787 0
-2793 2788 319 0
-2789 2794 0
-320 2794 0
-2794 2789 320 0
-2790 2795 0
-2789 -320 2795 0
-2795 2790 2789 0
-2795 2790 320 0
-2791 2796 0
-2790 -320 2796 0
-2796 2791 2790 0
-2796 2791 320 0
-2792 2797 0
-2791 -320 2797 0
-2797 2792 2791 0
-2797 2792 320 0
-2793 2798 0
-2792 -320 2798 0
-2798 2793 2792 0
-2798 2793 320 0
-2794 2799 0
-321 2799 0
-2799 2794 321 0
-2795 2800 0
-2794 -321 2800 0
-2800 2795 2794 0
-2800 2795 321 0
-2796 2801 0
-2795 -321 2801 0
-2801 2796 2795 0
-2801 2796 321 0
-2797 2802 0
-2796 -321 2802 0
-2802 2797 2796 0
-2802 2797 321 0
-2798 2803 0
-2797 -321 2803 0
-2803 2798 2797 0
-2803 2798 321 0
-2799 2804 0
-322 2804 0
-2804 2799 322 0
-2800 2805 0
-2799 -322 2805 0
-2805 2800 2799 0
-2805 2800 322 0
-2801 2806 0
-2800 -322 2806 0
-2806 2801 2800 0
-2806 2801 322 0
-2802 2807 0
-2801 -322 2807 0
-2807 2802 2801 0
-2807 2802 322 0
-2803 2808 0
-2802 -322 2808 0
-2808 2803 2802 0
-2808 2803 322 0
-2804 2809 0
-323 2809 0
-2809 2804 323 0
-2805 2810 0
-2804 -323 2810 0
-2810 2805 2804 0
-2810 2805 323 0
-2806 2811 0
-2805 -323 2811 0
-2811 2806 2805 0
-2811 2806 323 0
-2807 2812 0
-2806 -323 2812 0
-2812 2807 2806 0
-2812 2807 323 0
-2808 2813 0
-2807 -323 2813 0
-2813 2808 2807 0
-2813 2808 323 0
-2809 2814 0
-324 2814 0
-2814 2809 324 0
-2810 2815 0
-2809 -324 2815 0
-2815 2810 2809 0
-2815 2810 324 0
-2811 2816 0
-2810 -324 2816 0
-2816 2811 2810 0
-2816 2811 324 0
-2812 2817 0
-2811 -324 2817 0
-2817 2812 2811 0
-2817 2812 324 0
-2813 2818 0
-2812 -324 2818 0
-2818 2813 2812 0
-2818 2813 324 0
-2814 2819 0
-325 2819 0
-2819 2814 325 0
-2815 2820 0
-2814 -325 2820 0
-2820 2815 2814 0
-2820 2815 325 0
-2816 2821 0
-2815 -325 2821 0
-2821 2816 2815 0
-2821 2816 325 0
-2817 2822 0
-2816 -325 2822 0
-2822 2817 2816 0
-2822 2817 325 0
-2818 2823 0
-2817 -325 2823 0
-2823 2818 2817 0
-2823 2818 325 0
-2819 2824 0
-326 2824 0
-2824 2819 326 0
-2820 2825 0
-2819 -326 2825 0
-2825 2820 2819 0
-2825 2820 326 0
-2821 2826 0
-2820 -326 2826 0
-2826 2821 2820 0
-2826 2821 326 0
-2822 2827 0
-2821 -326 2827 0
-2827 2822 2821 0
-2827 2822 326 0
-2823 2828 0
-2822 -326 2828 0
-2828 2823 2822 0
-2828 2823 326 0
-2824 2829 0
-327 2829 0
-2829 2824 327 0
-2825 2830 0
-2824 -327 2830 0
-2830 2825 2824 0
-2830 2825 327 0
-2826 2831 0
-2825 -327 2831 0
-2831 2826 2825 0
-2831 2826 327 0
-2827 2832 0
-2826 -327 2832 0
-2832 2827 2826 0
-2832 2827 327 0
-2828 2833 0
-2827 -327 2833 0
-2833 2828 2827 0
-2833 2828 327 0
-2829 2834 0
-328 2834 0
-2834 2829 328 0
-2830 2835 0
-2829 -328 2835 0
-2835 2830 2829 0
-2835 2830 328 0
-2831 2836 0
-2830 -328 2836 0
-2836 2831 2830 0
-2836 2831 328 0
-2832 2837 0
-2831 -328 2837 0
-2837 2832 2831 0
-2837 2832 328 0
-2833 2838 0
-2832 -328 2838 0
-2838 2833 2832 0
-2838 2833 328 0
-2834 2839 0
-329 2839 0
-2839 2834 329 0
-2835 2840 0
-2834 -329 2840 0
-2840 2835 2834 0
-2840 2835 329 0
-2836 2841 0
-2835 -329 2841 0
-2841 2836 2835 0
-2841 2836 329 0
-2837 2842 0
-2836 -329 2842 0
-2842 2837 2836 0
-2842 2837 329 0
-2838 2843 0
-2837 -329 2843 0
-2843 2838 2837 0
-2843 2838 329 0
-2839 2844 0
-330 2844 0
-2844 2839 330 0
-2840 2845 0
-2839 -330 2845 0
-2845 2840 2839 0
-2845 2840 330 0
-2841 2846 0
-2840 -330 2846 0
-2846 2841 2840 0
-2846 2841 330 0
-2842 2847 0
-2841 -330 2847 0
-2847 2842 2841 0
-2847 2842 330 0
-2843 2848 0
-2842 -330 2848 0
-2848 2843 2842 0
-2848 2843 330 0
-2844 2849 0
-331 2849 0
-2849 2844 331 0
-2845 2850 0
-2844 -331 2850 0
-2850 2845 2844 0
-2850 2845 331 0
-2846 2851 0
-2845 -331 2851 0
-2851 2846 2845 0
-2851 2846 331 0
-2847 2852 0
-2846 -331 2852 0
-2852 2847 2846 0
-2852 2847 331 0
-2848 2853 0
-2847 -331 2853 0
-2853 2848 2847 0
-2853 2848 331 0
-2849 2854 0
-332 2854 0
-2854 2849 332 0
-2850 2855 0
-2849 -332 2855 0
-2855 2850 2849 0
-2855 2850 332 0
-2851 2856 0
-2850 -332 2856 0
-2856 2851 2850 0
-2856 2851 332 0
-2852 2857 0
-2851 -332 2857 0
-2857 2852 2851 0
-2857 2852 332 0
-2853 2858 0
-2852 -332 2858 0
-2858 2853 2852 0
-2858 2853 332 0
-2854 2859 0
-333 2859 0
-2859 2854 333 0
-2855 2860 0
-2854 -333 2860 0
-2860 2855 2854 0
-2860 2855 333 0
-2856 2861 0
-2855 -333 2861 0
-2861 2856 2855 0
-2861 2856 333 0
-2857 2862 0
-2856 -333 2862 0
-2862 2857 2856 0
-2862 2857 333 0
-2858 2863 0
-2857 -333 2863 0
-2863 2858 2857 0
-2863 2858 333 0
-2859 2864 0
-334 2864 0
-2864 2859 334 0
-2860 2865 0
-2859 -334 2865 0
-2865 2860 2859 0
-2865 2860 334 0
-2861 2866 0
-2860 -334 2866 0
-2866 2861 2860 0
-2866 2861 334 0
-2862 2867 0
-2861 -334 2867 0
-2867 2862 2861 0
-2867 2862 334 0
-2863 2868 0
-2862 -334 2868 0
-2868 2863 2862 0
-2868 2863 334 0
-2864 2869 0
-335 2869 0
-2869 2864 335 0
-2865 2870 0
-2864 -335 2870 0
-2870 2865 2864 0
-2870 2865 335 0
-2866 2871 0
-2865 -335 2871 0
-2871 2866 2865 0
-2871 2866 335 0
-2867 2872 0
-2866 -335 2872 0
-2872 2867 2866 0
-2872 2867 335 0
-2868 2873 0
-2867 -335 2873 0
-2873 2868 2867 0
-2873 2868 335 0
-2869 2874 0
-336 2874 0
-2874 2869 336 0
-2870 2875 0
-2869 -336 2875 0
-2875 2870 2869 0
-2875 2870 336 0
-2871 2876 0
-2870 -336 2876 0
-2876 2871 2870 0
-2876 2871 336 0
-2872 2877 0
-2871 -336 2877 0
-2877 2872 2871 0
-2877 2872 336 0
-2873 2878 0
-2872 -336 2878 0
-2878 2873 2872 0
-2878 2873 336 0
-2874 2879 0
-337 2879 0
-2879 2874 337 0
-2875 2880 0
-2874 -337 2880 0
-2880 2875 2874 0
-2880 2875 337 0
-2876 2881 0
-2875 -337 2881 0
-2881 2876 2875 0
-2881 2876 337 0
-2877 2882 0
-2876 -337 2882 0
-2882 2877 2876 0
-2882 2877 337 0
-2878 2883 0
-2877 -337 2883 0
-2883 2878 2877 0
-2883 2878 337 0
-2879 2884 0
-338 2884 0
-2884 2879 338 0
-2880 2885 0
-2879 -338 2885 0
-2885 2880 2879 0
-2885 2880 338 0
-2881 2886 0
-2880 -338 2886 0
-2886 2881 2880 0
-2886 2881 338 0
-2882 2887 0
-2881 -338 2887 0
-2887 2882 2881 0
-2887 2882 338 0
-2883 2888 0
-2882 -338 2888 0
-2888 2883 2882 0
-2888 2883 338 0
-2884 2889 0
-339 2889 0
-2889 2884 339 0
-2885 2890 0
-2884 -339 2890 0
-2890 2885 2884 0
-2890 2885 339 0
-2886 2891 0
-2885 -339 2891 0
-2891 2886 2885 0
-2891 2886 339 0
-2887 2892 0
-2886 -339 2892 0
-2892 2887 2886 0
-2892 2887 339 0
-2888 2893 0
-2887 -339 2893 0
-2893 2888 2887 0
-2893 2888 339 0
-2889 2894 0
-340 2894 0
-2894 2889 340 0
-2890 2895 0
-2889 -340 2895 0
-2895 2890 2889 0
-2895 2890 340 0
-2891 2896 0
-2890 -340 2896 0
-2896 2891 2890 0
-2896 2891 340 0
-2892 2897 0
-2891 -340 2897 0
-2897 2892 2891 0
-2897 2892 340 0
-2893 2898 0
-2892 -340 2898 0
-2898 2893 2892 0
-2898 2893 340 0
-2894 2899 0
-341 2899 0
-2899 2894 341 0
-2895 2900 0
-2894 -341 2900 0
-2900 2895 2894 0
-2900 2895 341 0
-2896 2901 0
-2895 -341 2901 0
-2901 2896 2895 0
-2901 2896 341 0
-2897 2902 0
-2896 -341 2902 0
-2902 2897 2896 0
-2902 2897 341 0
-2898 2903 0
-2897 -341 2903 0
-2903 2898 2897 0
-2903 2898 341 0
-2899 2904 0
-342 2904 0
-2904 2899 342 0
-2900 2905 0
-2899 -342 2905 0
-2905 2900 2899 0
-2905 2900 342 0
-2901 2906 0
-2900 -342 2906 0
-2906 2901 2900 0
-2906 2901 342 0
-2902 2907 0
-2901 -342 2907 0
-2907 2902 2901 0
-2907 2902 342 0
-2903 2908 0
-2902 -342 2908 0
-2908 2903 2902 0
-2908 2903 342 0
-2904 2909 0
-343 2909 0
-2909 2904 343 0
-2905 2910 0
-2904 -343 2910 0
-2910 2905 2904 0
-2910 2905 343 0
-2906 2911 0
-2905 -343 2911 0
-2911 2906 2905 0
-2911 2906 343 0
-2907 2912 0
-2906 -343 2912 0
-2912 2907 2906 0
-2912 2907 343 0
-2908 2913 0
-2907 -343 2913 0
-2913 2908 2907 0
-2913 2908 343 0
-2909 2914 0
-344 2914 0
-2914 2909 344 0
-2910 2915 0
-2909 -344 2915 0
-2915 2910 2909 0
-2915 2910 344 0
-2911 2916 0
-2910 -344 2916 0
-2916 2911 2910 0
-2916 2911 344 0
-2912 2917 0
-2911 -344 2917 0
-2917 2912 2911 0
-2917 2912 344 0
-2913 2918 0
-2912 -344 2918 0
-2918 2913 2912 0
-2918 2913 344 0
-2914 2919 0
-345 2919 0
-2919 2914 345 0
-2915 2920 0
-2914 -345 2920 0
-2920 2915 2914 0
-2920 2915 345 0
-2916 2921 0
-2915 -345 2921 0
-2921 2916 2915 0
-2921 2916 345 0
-2917 2922 0
-2916 -345 2922 0
-2922 2917 2916 0
-2922 2917 345 0
-2918 2923 0
-2917 -345 2923 0
-2923 2918 2917 0
-2923 2918 345 0
-2919 2924 0
-346 2924 0
-2924 2919 346 0
-2920 2925 0
-2919 -346 2925 0
-2925 2920 2919 0
-2925 2920 346 0
-2921 2926 0
-2920 -346 2926 0
-2926 2921 2920 0
-2926 2921 346 0
-2922 2927 0
-2921 -346 2927 0
-2927 2922 2921 0
-2927 2922 346 0
-2923 2928 0
-2922 -346 2928 0
-2928 2923 2922 0
-2928 2923 346 0
-2924 2929 0
-347 2929 0
-2929 2924 347 0
-2925 2930 0
-2924 -347 2930 0
-2930 2925 2924 0
-2930 2925 347 0
-2926 2931 0
-2925 -347 2931 0
-2931 2926 2925 0
-2931 2926 347 0
-2927 2932 0
-2926 -347 2932 0
-2932 2927 2926 0
-2932 2927 347 0
-2928 2933 0
-2927 -347 2933 0
-2933 2928 2927 0
-2933 2928 347 0
-2929 2934 0
-348 2934 0
-2934 2929 348 0
-2930 2935 0
-2929 -348 2935 0
-2935 2930 2929 0
-2935 2930 348 0
-2931 2936 0
-2930 -348 2936 0
-2936 2931 2930 0
-2936 2931 348 0
-2932 2937 0
-2931 -348 2937 0
-2937 2932 2931 0
-2937 2932 348 0
-2933 2938 0
-2932 -348 2938 0
-2938 2933 2932 0
-2938 2933 348 0
-2934 2939 0
-349 2939 0
-2939 2934 349 0
-2935 2940 0
-2934 -349 2940 0
-2940 2935 2934 0
-2940 2935 349 0
-2936 2941 0
-2935 -349 2941 0
-2941 2936 2935 0
-2941 2936 349 0
-2937 2942 0
-2936 -349 2942 0
-2942 2937 2936 0
-2942 2937 349 0
-2938 2943 0
-2937 -349 2943 0
-2943 2938 2937 0
-2943 2938 349 0
-2939 2944 0
-350 2944 0
-2944 2939 350 0
-2940 2945 0
-2939 -350 2945 0
-2945 2940 2939 0
-2945 2940 350 0
-2941 2946 0
-2940 -350 2946 0
-2946 2941 2940 0
-2946 2941 350 0
-2942 2947 0
-2941 -350 2947 0
-2947 2942 2941 0
-2947 2942 350 0
-2943 2948 0
-2942 -350 2948 0
-2948 2943 2942 0
-2948 2943 350 0
-2944 2949 0
-351 2949 0
-2949 2944 351 0
-2945 2950 0
-2944 -351 2950 0
-2950 2945 2944 0
-2950 2945 351 0
-2946 2951 0
-2945 -351 2951 0
-2951 2946 2945 0
-2951 2946 351 0
-2947 2952 0
-2946 -351 2952 0
-2952 2947 2946 0
-2952 2947 351 0
-2948 2953 0
-2947 -351 2953 0
-2953 2948 2947 0
-2953 2948 351 0
-2949 2954 0
-352 2954 0
-2954 2949 352 0
-2950 2955 0
-2949 -352 2955 0
-2955 2950 2949 0
-2955 2950 352 0
-2951 2956 0
-2950 -352 2956 0
-2956 2951 2950 0
-2956 2951 352 0
-2952 2957 0
-2951 -352 2957 0
-2957 2952 2951 0
-2957 2952 352 0
-2953 2958 0
-2952 -352 2958 0
-2958 2953 2952 0
-2958 2953 352 0
-2954 2959 0
-353 2959 0
-2959 2954 353 0
-2955 2960 0
-2954 -353 2960 0
-2960 2955 2954 0
-2960 2955 353 0
-2956 2961 0
-2955 -353 2961 0
-2961 2956 2955 0
-2961 2956 353 0
-2957 2962 0
-2956 -353 2962 0
-2962 2957 2956 0
-2962 2957 353 0
-2958 2963 0
-2957 -353 2963 0
-2963 2958 2957 0
-2963 2958 353 0
-2959 2964 0
-354 2964 0
-2964 2959 354 0
-2960 2965 0
-2959 -354 2965 0
-2965 2960 2959 0
-2965 2960 354 0
-2961 2966 0
-2960 -354 2966 0
-2966 2961 2960 0
-2966 2961 354 0
-2962 2967 0
-2961 -354 2967 0
-2967 2962 2961 0
-2967 2962 354 0
-2963 2968 0
-2962 -354 2968 0
-2968 2963 2962 0
-2968 2963 354 0
-2964 2969 0
-355 2969 0
-2969 2964 355 0
-2965 2970 0
-2964 -355 2970 0
-2970 2965 2964 0
-2970 2965 355 0
-2966 2971 0
-2965 -355 2971 0
-2971 2966 2965 0
-2971 2966 355 0
-2967 2972 0
-2966 -355 2972 0
-2972 2967 2966 0
-2972 2967 355 0
-2968 2973 0
-2967 -355 2973 0
-2973 2968 2967 0
-2973 2968 355 0
-2969 2974 0
-356 2974 0
-2974 2969 356 0
-2970 2975 0
-2969 -356 2975 0
-2975 2970 2969 0
-2975 2970 356 0
-2971 2976 0
-2970 -356 2976 0
-2976 2971 2970 0
-2976 2971 356 0
-2972 2977 0
-2971 -356 2977 0
-2977 2972 2971 0
-2977 2972 356 0
-2973 2978 0
-2972 -356 2978 0
-2978 2973 2972 0
-2978 2973 356 0
-2974 2979 0
-357 2979 0
-2979 2974 357 0
-2975 2980 0
-2974 -357 2980 0
-2980 2975 2974 0
-2980 2975 357 0
-2976 2981 0
-2975 -357 2981 0
-2981 2976 2975 0
-2981 2976 357 0
-2977 2982 0
-2976 -357 2982 0
-2982 2977 2976 0
-2982 2977 357 0
-2978 2983 0
-2977 -357 2983 0
-2983 2978 2977 0
-2983 2978 357 0
-2979 2984 0
-358 2984 0
-2984 2979 358 0
-2980 2985 0
-2979 -358 2985 0
-2985 2980 2979 0
-2985 2980 358 0
-2981 2986 0
-2980 -358 2986 0
-2986 2981 2980 0
-2986 2981 358 0
-2982 2987 0
-2981 -358 2987 0
-2987 2982 2981 0
-2987 2982 358 0
-2983 2988 0
-2982 -358 2988 0
-2988 2983 2982 0
-2988 2983 358 0
-2984 2989 0
-359 2989 0
-2989 2984 359 0
-2985 2990 0
-2984 -359 2990 0
-2990 2985 2984 0
-2990 2985 359 0
-2986 2991 0
-2985 -359 2991 0
-2991 2986 2985 0
-2991 2986 359 0
-2987 2992 0
-2986 -359 2992 0
-2992 2987 2986 0
-2992 2987 359 0
-2988 2993 0
-2987 -359 2993 0
-2993 2988 2987 0
-2993 2988 359 0
-2989 2994 0
-360 2994 0
-2994 2989 360 0
-2990 2995 0
-2989 -360 2995 0
-2995 2990 2989 0
-2995 2990 360 0
-2991 2996 0
-2990 -360 2996 0
-2996 2991 2990 0
-2996 2991 360 0
-2992 2997 0
-2991 -360 2997 0
-2997 2992 2991 0
-2997 2992 360 0
-2993 2998 0
-2992 -360 2998 0
-2998 2993 2992 0
-2998 2993 360 0
-2994 2999 0
-361 2999 0
-2999 2994 361 0
-2995 3000 0
-2994 -361 3000 0
-3000 2995 2994 0
-3000 2995 361 0
-2996 3001 0
-2995 -361 3001 0
-3001 2996 2995 0
-3001 2996 361 0
-2997 3002 0
-2996 -361 3002 0
-3002 2997 2996 0
-3002 2997 361 0
-2998 3003 0
-2997 -361 3003 0
-3003 2998 2997 0
-3003 2998 361 0
-2999 3004 0
-362 3004 0
-3004 2999 362 0
-3000 3005 0
-2999 -362 3005 0
-3005 3000 2999 0
-3005 3000 362 0
-3001 3006 0
-3000 -362 3006 0
-3006 3001 3000 0
-3006 3001 362 0
-3002 3007 0
-3001 -362 3007 0
-3007 3002 3001 0
-3007 3002 362 0
-3003 3008 0
-3002 -362 3008 0
-3008 3003 3002 0
-3008 3003 362 0
-3004 3009 0
-363 3009 0
-3009 3004 363 0
-3005 3010 0
-3004 -363 3010 0
-3010 3005 3004 0
-3010 3005 363 0
-3006 3011 0
-3005 -363 3011 0
-3011 3006 3005 0
-3011 3006 363 0
-3007 3012 0
-3006 -363 3012 0
-3012 3007 3006 0
-3012 3007 363 0
-3008 3013 0
-3007 -363 3013 0
-3013 3008 3007 0
-3013 3008 363 0
-3009 3014 0
-364 3014 0
-3014 3009 364 0
-3010 3015 0
-3009 -364 3015 0
-3015 3010 3009 0
-3015 3010 364 0
-3011 3016 0
-3010 -364 3016 0
-3016 3011 3010 0
-3016 3011 364 0
-3012 3017 0
-3011 -364 3017 0
-3017 3012 3011 0
-3017 3012 364 0
-3013 3018 0
-3012 -364 3018 0
-3018 3013 3012 0
-3018 3013 364 0
-3014 3019 0
-365 3019 0
-3019 3014 365 0
-3015 3020 0
-3014 -365 3020 0
-3020 3015 3014 0
-3020 3015 365 0
-3016 3021 0
-3015 -365 3021 0
-3021 3016 3015 0
-3021 3016 365 0
-3017 3022 0
-3016 -365 3022 0
-3022 3017 3016 0
-3022 3017 365 0
-3018 3023 0
-3017 -365 3023 0
-3023 3018 3017 0
-3023 3018 365 0
-3019 3024 0
-366 3024 0
-3024 3019 366 0
-3020 3025 0
-3019 -366 3025 0
-3025 3020 3019 0
-3025 3020 366 0
-3021 3026 0
-3020 -366 3026 0
-3026 3021 3020 0
-3026 3021 366 0
-3022 3027 0
-3021 -366 3027 0
-3027 3022 3021 0
-3027 3022 366 0
-3023 3028 0
-3022 -366 3028 0
-3028 3023 3022 0
-3028 3023 366 0
-3024 3029 0
-367 3029 0
-3029 3024 367 0
-3025 3030 0
-3024 -367 3030 0
-3030 3025 3024 0
-3030 3025 367 0
-3026 3031 0
-3025 -367 3031 0
-3031 3026 3025 0
-3031 3026 367 0
-3027 3032 0
-3026 -367 3032 0
-3032 3027 3026 0
-3032 3027 367 0
-3028 3033 0
-3027 -367 3033 0
-3033 3028 3027 0
-3033 3028 367 0
-3029 3034 0
-368 3034 0
-3034 3029 368 0
-3030 3035 0
-3029 -368 3035 0
-3035 3030 3029 0
-3035 3030 368 0
-3031 3036 0
-3030 -368 3036 0
-3036 3031 3030 0
-3036 3031 368 0
-3032 3037 0
-3031 -368 3037 0
-3037 3032 3031 0
-3037 3032 368 0
-3033 3038 0
-3032 -368 3038 0
-3038 3033 3032 0
-3038 3033 368 0
-3034 3039 0
-369 3039 0
-3039 3034 369 0
-3035 3040 0
-3034 -369 3040 0
-3040 3035 3034 0
-3040 3035 369 0
-3036 3041 0
-3035 -369 3041 0
-3041 3036 3035 0
-3041 3036 369 0
-3037 3042 0
-3036 -369 3042 0
-3042 3037 3036 0
-3042 3037 369 0
-3038 3043 0
-3037 -369 3043 0
-3043 3038 3037 0
-3043 3038 369 0
-3039 3044 0
-370 3044 0
-3044 3039 370 0
-3040 3045 0
-3039 -370 3045 0
-3045 3040 3039 0
-3045 3040 370 0
-3041 3046 0
-3040 -370 3046 0
-3046 3041 3040 0
-3046 3041 370 0
-3042 3047 0
-3041 -370 3047 0
-3047 3042 3041 0
-3047 3042 370 0
-3043 3048 0
-3042 -370 3048 0
-3048 3043 3042 0
-3048 3043 370 0
-3044 3049 0
-371 3049 0
-3049 3044 371 0
-3045 3050 0
-3044 -371 3050 0
-3050 3045 3044 0
-3050 3045 371 0
-3046 3051 0
-3045 -371 3051 0
-3051 3046 3045 0
-3051 3046 371 0
-3047 3052 0
-3046 -371 3052 0
-3052 3047 3046 0
-3052 3047 371 0
-3048 3053 0
-3047 -371 3053 0
-3053 3048 3047 0
-3053 3048 371 0
-3049 3054 0
-372 3054 0
-3054 3049 372 0
-3050 3055 0
-3049 -372 3055 0
-3055 3050 3049 0
-3055 3050 372 0
-3051 3056 0
-3050 -372 3056 0
-3056 3051 3050 0
-3056 3051 372 0
-3052 3057 0
-3051 -372 3057 0
-3057 3052 3051 0
-3057 3052 372 0
-3053 3058 0
-3052 -372 3058 0
-3058 3053 3052 0
-3058 3053 372 0
-3054 3059 0
-373 3059 0
-3059 3054 373 0
-3055 3060 0
-3054 -373 3060 0
-3060 3055 3054 0
-3060 3055 373 0
-3056 3061 0
-3055 -373 3061 0
-3061 3056 3055 0
-3061 3056 373 0
-3057 3062 0
-3056 -373 3062 0
-3062 3057 3056 0
-3062 3057 373 0
-3058 3063 0
-3057 -373 3063 0
-3063 3058 3057 0
-3063 3058 373 0
-3059 3064 0
-374 3064 0
-3064 3059 374 0
-3060 3065 0
-3059 -374 3065 0
-3065 3060 3059 0
-3065 3060 374 0
-3061 3066 0
-3060 -374 3066 0
-3066 3061 3060 0
-3066 3061 374 0
-3062 3067 0
-3061 -374 3067 0
-3067 3062 3061 0
-3067 3062 374 0
-3063 3068 0
-3062 -374 3068 0
-3068 3063 3062 0
-3068 3063 374 0
-3064 3069 0
-375 3069 0
-3069 3064 375 0
-3065 3070 0
-3064 -375 3070 0
-3070 3065 3064 0
-3070 3065 375 0
-3066 3071 0
-3065 -375 3071 0
-3071 3066 3065 0
-3071 3066 375 0
-3067 3072 0
-3066 -375 3072 0
-3072 3067 3066 0
-3072 3067 375 0
-3068 3073 0
-3067 -375 3073 0
-3073 3068 3067 0
-3073 3068 375 0
-3069 3074 0
-376 3074 0
-3074 3069 376 0
-3070 3075 0
-3069 -376 3075 0
-3075 3070 3069 0
-3075 3070 376 0
-3071 3076 0
-3070 -376 3076 0
-3076 3071 3070 0
-3076 3071 376 0
-3072 3077 0
-3071 -376 3077 0
-3077 3072 3071 0
-3077 3072 376 0
-3073 3078 0
-3072 -376 3078 0
-3078 3073 3072 0
-3078 3073 376 0
-3074 3079 0
-377 3079 0
-3079 3074 377 0
-3075 3080 0
-3074 -377 3080 0
-3080 3075 3074 0
-3080 3075 377 0
-3076 3081 0
-3075 -377 3081 0
-3081 3076 3075 0
-3081 3076 377 0
-3077 3082 0
-3076 -377 3082 0
-3082 3077 3076 0
-3082 3077 377 0
-3078 3083 0
-3077 -377 3083 0
-3083 3078 3077 0
-3083 3078 377 0
-3079 3084 0
-378 3084 0
-3084 3079 378 0
-3080 3085 0
-3079 -378 3085 0
-3085 3080 3079 0
-3085 3080 378 0
-3081 3086 0
-3080 -378 3086 0
-3086 3081 3080 0
-3086 3081 378 0
-3082 3087 0
-3081 -378 3087 0
-3087 3082 3081 0
-3087 3082 378 0
-3083 3088 0
-3082 -378 3088 0
-3088 3083 3082 0
-3088 3083 378 0
-3084 3089 0
-379 3089 0
-3089 3084 379 0
-3085 3090 0
-3084 -379 3090 0
-3090 3085 3084 0
-3090 3085 379 0
-3086 3091 0
-3085 -379 3091 0
-3091 3086 3085 0
-3091 3086 379 0
-3087 3092 0
-3086 -379 3092 0
-3092 3087 3086 0
-3092 3087 379 0
-3088 3093 0
-3087 -379 3093 0
-3093 3088 3087 0
-3093 3088 379 0
-3089 3094 0
-380 3094 0
-3094 3089 380 0
-3090 3095 0
-3089 -380 3095 0
-3095 3090 3089 0
-3095 3090 380 0
-3091 3096 0
-3090 -380 3096 0
-3096 3091 3090 0
-3096 3091 380 0
-3092 3097 0
-3091 -380 3097 0
-3097 3092 3091 0
-3097 3092 380 0
-3093 3098 0
-3092 -380 3098 0
-3098 3093 3092 0
-3098 3093 380 0
-3094 3099 0
-381 3099 0
-3099 3094 381 0
-3095 3100 0
-3094 -381 3100 0
-3100 3095 3094 0
-3100 3095 381 0
-3096 3101 0
-3095 -381 3101 0
-3101 3096 3095 0
-3101 3096 381 0
-3097 3102 0
-3096 -381 3102 0
-3102 3097 3096 0
-3102 3097 381 0
-3098 3103 0
-3097 -381 3103 0
-3103 3098 3097 0
-3103 3098 381 0
-3099 3104 0
-382 3104 0
-3104 3099 382 0
-3100 3105 0
-3099 -382 3105 0
-3105 3100 3099 0
-3105 3100 382 0
-3101 3106 0
-3100 -382 3106 0
-3106 3101 3100 0
-3106 3101 382 0
-3102 3107 0
-3101 -382 3107 0
-3107 3102 3101 0
-3107 3102 382 0
-3103 3108 0
-3102 -382 3108 0
-3108 3103 3102 0
-3108 3103 382 0
-3104 3109 0
-383 3109 0
-3109 3104 383 0
-3105 3110 0
-3104 -383 3110 0
-3110 3105 3104 0
-3110 3105 383 0
-3106 3111 0
-3105 -383 3111 0
-3111 3106 3105 0
-3111 3106 383 0
-3107 3112 0
-3106 -383 3112 0
-3112 3107 3106 0
-3112 3107 383 0
-3108 3113 0
-3107 -383 3113 0
-3113 3108 3107 0
-3113 3108 383 0
-3109 3114 0
-384 3114 0
-3114 3109 384 0
-3110 3115 0
-3109 -384 3115 0
-3115 3110 3109 0
-3115 3110 384 0
-3111 3116 0
-3110 -384 3116 0
-3116 3111 3110 0
-3116 3111 384 0
-3112 3117 0
-3111 -384 3117 0
-3117 3112 3111 0
-3117 3112 384 0
-3113 3118 0
-3112 -384 3118 0
-3118 3113 3112 0
-3118 3113 384 0
-3114 3119 0
-385 3119 0
-3119 3114 385 0
-3115 3120 0
-3114 -385 3120 0
-3120 3115 3114 0
-3120 3115 385 0
-3116 3121 0
-3115 -385 3121 0
-3121 3116 3115 0
-3121 3116 385 0
-3117 3122 0
-3116 -385 3122 0
-3122 3117 3116 0
-3122 3117 385 0
-3118 3123 0
-3117 -385 3123 0
-3123 3118 3117 0
-3123 3118 385 0
-3119 3124 0
-386 3124 0
-3124 3119 386 0
-3120 3125 0
-3119 -386 3125 0
-3125 3120 3119 0
-3125 3120 386 0
-3121 3126 0
-3120 -386 3126 0
-3126 3121 3120 0
-3126 3121 386 0
-3122 3127 0
-3121 -386 3127 0
-3127 3122 3121 0
-3127 3122 386 0
-3123 3128 0
-3122 -386 3128 0
-3128 3123 3122 0
-3128 3123 386 0
-3124 3129 0
-387 3129 0
-3129 3124 387 0
-3125 3130 0
-3124 -387 3130 0
-3130 3125 3124 0
-3130 3125 387 0
-3126 3131 0
-3125 -387 3131 0
-3131 3126 3125 0
-3131 3126 387 0
-3127 3132 0
-3126 -387 3132 0
-3132 3127 3126 0
-3132 3127 387 0
-3128 3133 0
-3127 -387 3133 0
-3133 3128 3127 0
-3133 3128 387 0
-3129 3134 0
-388 3134 0
-3134 3129 388 0
-3130 3135 0
-3129 -388 3135 0
-3135 3130 3129 0
-3135 3130 388 0
-3131 3136 0
-3130 -388 3136 0
-3136 3131 3130 0
-3136 3131 388 0
-3132 3137 0
-3131 -388 3137 0
-3137 3132 3131 0
-3137 3132 388 0
-3133 3138 0
-3132 -388 3138 0
-3138 3133 3132 0
-3138 3133 388 0
-3134 3139 0
-389 3139 0
-3139 3134 389 0
-3135 3140 0
-3134 -389 3140 0
-3140 3135 3134 0
-3140 3135 389 0
-3136 3141 0
-3135 -389 3141 0
-3141 3136 3135 0
-3141 3136 389 0
-3137 3142 0
-3136 -389 3142 0
-3142 3137 3136 0
-3142 3137 389 0
-3138 3143 0
-3137 -389 3143 0
-3143 3138 3137 0
-3143 3138 389 0
-3139 3144 0
-390 3144 0
-3144 3139 390 0
-3140 3145 0
-3139 -390 3145 0
-3145 3140 3139 0
-3145 3140 390 0
-3141 3146 0
-3140 -390 3146 0
-3146 3141 3140 0
-3146 3141 390 0
-3142 3147 0
-3141 -390 3147 0
-3147 3142 3141 0
-3147 3142 390 0
-3143 3148 0
-3142 -390 3148 0
-3148 3143 3142 0
-3148 3143 390 0
-3144 3149 0
-391 3149 0
-3149 3144 391 0
-3145 3150 0
-3144 -391 3150 0
-3150 3145 3144 0
-3150 3145 391 0
-3146 3151 0
-3145 -391 3151 0
-3151 3146 3145 0
-3151 3146 391 0
-3147 3152 0
-3146 -391 3152 0
-3152 3147 3146 0
-3152 3147 391 0
-3148 3153 0
-3147 -391 3153 0
-3153 3148 3147 0
-3153 3148 391 0
-3149 3154 0
-392 3154 0
-3154 3149 392 0
-3150 3155 0
-3149 -392 3155 0
-3155 3150 3149 0
-3155 3150 392 0
-3151 3156 0
-3150 -392 3156 0
-3156 3151 3150 0
-3156 3151 392 0
-3152 3157 0
-3151 -392 3157 0
-3157 3152 3151 0
-3157 3152 392 0
-3153 3158 0
-3152 -392 3158 0
-3158 3153 3152 0
-3158 3153 392 0
-3154 3159 0
-393 3159 0
-3159 3154 393 0
-3155 3160 0
-3154 -393 3160 0
-3160 3155 3154 0
-3160 3155 393 0
-3156 3161 0
-3155 -393 3161 0
-3161 3156 3155 0
-3161 3156 393 0
-3157 3162 0
-3156 -393 3162 0
-3162 3157 3156 0
-3162 3157 393 0
-3158 3163 0
-3157 -393 3163 0
-3163 3158 3157 0
-3163 3158 393 0
-3159 3164 0
-394 3164 0
-3164 3159 394 0
-3160 3165 0
-3159 -394 3165 0
-3165 3160 3159 0
-3165 3160 394 0
-3161 3166 0
-3160 -394 3166 0
-3166 3161 3160 0
-3166 3161 394 0
-3162 3167 0
-3161 -394 3167 0
-3167 3162 3161 0
-3167 3162 394 0
-3163 3168 0
-3162 -394 3168 0
-3168 3163 3162 0
-3168 3163 394 0
-3164 3169 0
-395 3169 0
-3169 3164 395 0
-3165 3170 0
-3164 -395 3170 0
-3170 3165 3164 0
-3170 3165 395 0
-3166 3171 0
-3165 -395 3171 0
-3171 3166 3165 0
-3171 3166 395 0
-3167 3172 0
-3166 -395 3172 0
-3172 3167 3166 0
-3172 3167 395 0
-3168 3173 0
-3167 -395 3173 0
-3173 3168 3167 0
-3173 3168 395 0
-3169 3174 0
-396 3174 0
-3174 3169 396 0
-3170 3175 0
-3169 -396 3175 0
-3175 3170 3169 0
-3175 3170 396 0
-3171 3176 0
-3170 -396 3176 0
-3176 3171 3170 0
-3176 3171 396 0
-3172 3177 0
-3171 -396 3177 0
-3177 3172 3171 0
-3177 3172 396 0
-3173 3178 0
-3172 -396 3178 0
-3178 3173 3172 0
-3178 3173 396 0
-3174 3179 0
-397 3179 0
-3179 3174 397 0
-3175 3180 0
-3174 -397 3180 0
-3180 3175 3174 0
-3180 3175 397 0
-3176 3181 0
-3175 -397 3181 0
-3181 3176 3175 0
-3181 3176 397 0
-3177 3182 0
-3176 -397 3182 0
-3182 3177 3176 0
-3182 3177 397 0
-3178 3183 0
-3177 -397 3183 0
-3183 3178 3177 0
-3183 3178 397 0
-3179 3184 0
-398 3184 0
-3184 3179 398 0
-3180 3185 0
-3179 -398 3185 0
-3185 3180 3179 0
-3185 3180 398 0
-3181 3186 0
-3180 -398 3186 0
-3186 3181 3180 0
-3186 3181 398 0
-3182 3187 0
-3181 -398 3187 0
-3187 3182 3181 0
-3187 3182 398 0
-3183 3188 0
-3182 -398 3188 0
-3188 3183 3182 0
-3188 3183 398 0
-3184 3189 0
-399 3189 0
-3189 3184 399 0
-3185 3190 0
-3184 -399 3190 0
-3190 3185 3184 0
-3190 3185 399 0
-3186 3191 0
-3185 -399 3191 0
-3191 3186 3185 0
-3191 3186 399 0
-3187 3192 0
-3186 -399 3192 0
-3192 3187 3186 0
-3192 3187 399 0
-3188 3193 0
-3187 -399 3193 0
-3193 3188 3187 0
-3193 3188 399 0
-3189 3194 0
-400 3194 0
-3194 3189 400 0
-3190 3195 0
-3189 -400 3195 0
-3195 3190 3189 0
-3195 3190 400 0
-3191 3196 0
-3190 -400 3196 0
-3196 3191 3190 0
-3196 3191 400 0
-3192 3197 0
-3191 -400 3197 0
-3197 3192 3191 0
-3197 3192 400 0
-3193 3198 0
-3192 -400 3198 0
-3198 3193 3192 0
-3198 3193 400 0
-3194 3199 0
-401 3199 0
-3199 3194 401 0
-3195 3200 0
-3194 -401 3200 0
-3200 3195 3194 0
-3200 3195 401 0
-3196 3201 0
-3195 -401 3201 0
-3201 3196 3195 0
-3201 3196 401 0
-3197 3202 0
-3196 -401 3202 0
-3202 3197 3196 0
-3202 3197 401 0
-3198 3203 0
-3197 -401 3203 0
-3203 3198 3197 0
-3203 3198 401 0
-3199 3204 0
-402 3204 0
-3204 3199 402 0
-3200 3205 0
-3199 -402 3205 0
-3205 3200 3199 0
-3205 3200 402 0
-3201 3206 0
-3200 -402 3206 0
-3206 3201 3200 0
-3206 3201 402 0
-3202 3207 0
-3201 -402 3207 0
-3207 3202 3201 0
-3207 3202 402 0
-3203 3208 0
-3202 -402 3208 0
-3208 3203 3202 0
-3208 3203 402 0
-3204 3209 0
-403 3209 0
-3209 3204 403 0
-3205 3210 0
-3204 -403 3210 0
-3210 3205 3204 0
-3210 3205 403 0
-3206 3211 0
-3205 -403 3211 0
-3211 3206 3205 0
-3211 3206 403 0
-3207 3212 0
-3206 -403 3212 0
-3212 3207 3206 0
-3212 3207 403 0
-3208 3213 0
-3207 -403 3213 0
-3213 3208 3207 0
-3213 3208 403 0
-3209 3214 0
-404 3214 0
-3214 3209 404 0
-3210 3215 0
-3209 -404 3215 0
-3215 3210 3209 0
-3215 3210 404 0
-3211 3216 0
-3210 -404 3216 0
-3216 3211 3210 0
-3216 3211 404 0
-3212 3217 0
-3211 -404 3217 0
-3217 3212 3211 0
-3217 3212 404 0
-3213 3218 0
-3212 -404 3218 0
-3218 3213 3212 0
-3218 3213 404 0
-3214 3219 0
-405 3219 0
-3219 3214 405 0
-3215 3220 0
-3214 -405 3220 0
-3220 3215 3214 0
-3220 3215 405 0
-3216 3221 0
-3215 -405 3221 0
-3221 3216 3215 0
-3221 3216 405 0
-3217 3222 0
-3216 -405 3222 0
-3222 3217 3216 0
-3222 3217 405 0
-3218 3223 0
-3217 -405 3223 0
-3223 3218 3217 0
-3223 3218 405 0
-3219 3224 0
-406 3224 0
-3224 3219 406 0
-3220 3225 0
-3219 -406 3225 0
-3225 3220 3219 0
-3225 3220 406 0
-3221 3226 0
-3220 -406 3226 0
-3226 3221 3220 0
-3226 3221 406 0
-3222 3227 0
-3221 -406 3227 0
-3227 3222 3221 0
-3227 3222 406 0
-3223 3228 0
-3222 -406 3228 0
-3228 3223 3222 0
-3228 3223 406 0
-3224 3229 0
-407 3229 0
-3229 3224 407 0
-3225 3230 0
-3224 -407 3230 0
-3230 3225 3224 0
-3230 3225 407 0
-3226 3231 0
-3225 -407 3231 0
-3231 3226 3225 0
-3231 3226 407 0
-3227 3232 0
-3226 -407 3232 0
-3232 3227 3226 0
-3232 3227 407 0
-3228 3233 0
-3227 -407 3233 0
-3233 3228 3227 0
-3233 3228 407 0
-3229 3234 0
-408 3234 0
-3234 3229 408 0
-3230 3235 0
-3229 -408 3235 0
-3235 3230 3229 0
-3235 3230 408 0
-3231 3236 0
-3230 -408 3236 0
-3236 3231 3230 0
-3236 3231 408 0
-3232 3237 0
-3231 -408 3237 0
-3237 3232 3231 0
-3237 3232 408 0
-3233 3238 0
-3232 -408 3238 0
-3238 3233 3232 0
-3238 3233 408 0
-3234 3239 0
-409 3239 0
-3239 3234 409 0
-3235 3240 0
-3234 -409 3240 0
-3240 3235 3234 0
-3240 3235 409 0
-3236 3241 0
-3235 -409 3241 0
-3241 3236 3235 0
-3241 3236 409 0
-3237 3242 0
-3236 -409 3242 0
-3242 3237 3236 0
-3242 3237 409 0
-3238 3243 0
-3237 -409 3243 0
-3243 3238 3237 0
-3243 3238 409 0
-3239 3244 0
-410 3244 0
-3244 3239 410 0
-3240 3245 0
-3239 -410 3245 0
-3245 3240 3239 0
-3245 3240 410 0
-3241 3246 0
-3240 -410 3246 0
-3246 3241 3240 0
-3246 3241 410 0
-3242 3247 0
-3241 -410 3247 0
-3247 3242 3241 0
-3247 3242 410 0
-3243 3248 0
-3242 -410 3248 0
-3248 3243 3242 0
-3248 3243 410 0
-3244 3249 0
-411 3249 0
-3249 3244 411 0
-3245 3250 0
-3244 -411 3250 0
-3250 3245 3244 0
-3250 3245 411 0
-3246 3251 0
-3245 -411 3251 0
-3251 3246 3245 0
-3251 3246 411 0
-3247 3252 0
-3246 -411 3252 0
-3252 3247 3246 0
-3252 3247 411 0
-3248 3253 0
-3247 -411 3253 0
-3253 3248 3247 0
-3253 3248 411 0
-3249 3254 0
-412 3254 0
-3254 3249 412 0
-3250 3255 0
-3249 -412 3255 0
-3255 3250 3249 0
-3255 3250 412 0
-3251 3256 0
-3250 -412 3256 0
-3256 3251 3250 0
-3256 3251 412 0
-3252 3257 0
-3251 -412 3257 0
-3257 3252 3251 0
-3257 3252 412 0
-3253 3258 0
-3252 -412 3258 0
-3258 3253 3252 0
-3258 3253 412 0
-3254 3259 0
-413 3259 0
-3259 3254 413 0
-3255 3260 0
-3254 -413 3260 0
-3260 3255 3254 0
-3260 3255 413 0
-3256 3261 0
-3255 -413 3261 0
-3261 3256 3255 0
-3261 3256 413 0
-3257 3262 0
-3256 -413 3262 0
-3262 3257 3256 0
-3262 3257 413 0
-3258 3263 0
-3257 -413 3263 0
-3263 3258 3257 0
-3263 3258 413 0
-3259 3264 0
-414 3264 0
-3264 3259 414 0
-3260 3265 0
-3259 -414 3265 0
-3265 3260 3259 0
-3265 3260 414 0
-3261 3266 0
-3260 -414 3266 0
-3266 3261 3260 0
-3266 3261 414 0
-3262 3267 0
-3261 -414 3267 0
-3267 3262 3261 0
-3267 3262 414 0
-3263 3268 0
-3262 -414 3268 0
-3268 3263 3262 0
-3268 3263 414 0
-3264 3269 0
-415 3269 0
-3269 3264 415 0
-3265 3270 0
-3264 -415 3270 0
-3270 3265 3264 0
-3270 3265 415 0
-3266 3271 0
-3265 -415 3271 0
-3271 3266 3265 0
-3271 3266 415 0
-3267 3272 0
-3266 -415 3272 0
-3272 3267 3266 0
-3272 3267 415 0
-3268 3273 0
-3267 -415 3273 0
-3273 3268 3267 0
-3273 3268 415 0
-3269 3274 0
-416 3274 0
-3274 3269 416 0
-3270 3275 0
-3269 -416 3275 0
-3275 3270 3269 0
-3275 3270 416 0
-3271 3276 0
-3270 -416 3276 0
-3276 3271 3270 0
-3276 3271 416 0
-3272 3277 0
-3271 -416 3277 0
-3277 3272 3271 0
-3277 3272 416 0
-3273 3278 0
-3272 -416 3278 0
-3278 3273 3272 0
-3278 3273 416 0
-3274 3279 0
-417 3279 0
-3279 3274 417 0
-3275 3280 0
-3274 -417 3280 0
-3280 3275 3274 0
-3280 3275 417 0
-3276 3281 0
-3275 -417 3281 0
-3281 3276 3275 0
-3281 3276 417 0
-3277 3282 0
-3276 -417 3282 0
-3282 3277 3276 0
-3282 3277 417 0
-3278 3283 0
-3277 -417 3283 0
-3283 3278 3277 0
-3283 3278 417 0
-3279 3284 0
-418 3284 0
-3284 3279 418 0
-3280 3285 0
-3279 -418 3285 0
-3285 3280 3279 0
-3285 3280 418 0
-3281 3286 0
-3280 -418 3286 0
-3286 3281 3280 0
-3286 3281 418 0
-3282 3287 0
-3281 -418 3287 0
-3287 3282 3281 0
-3287 3282 418 0
-3283 3288 0
-3282 -418 3288 0
-3288 3283 3282 0
-3288 3283 418 0
-3284 3289 0
-419 3289 0
-3289 3284 419 0
-3285 3290 0
-3284 -419 3290 0
-3290 3285 3284 0
-3290 3285 419 0
-3286 3291 0
-3285 -419 3291 0
-3291 3286 3285 0
-3291 3286 419 0
-3287 3292 0
-3286 -419 3292 0
-3292 3287 3286 0
-3292 3287 419 0
-3288 3293 0
-3287 -419 3293 0
-3293 3288 3287 0
-3293 3288 419 0
-3289 3294 0
-420 3294 0
-3294 3289 420 0
-3290 3295 0
-3289 -420 3295 0
-3295 3290 3289 0
-3295 3290 420 0
-3291 3296 0
-3290 -420 3296 0
-3296 3291 3290 0
-3296 3291 420 0
-3292 3297 0
-3291 -420 3297 0
-3297 3292 3291 0
-3297 3292 420 0
-3293 3298 0
-3292 -420 3298 0
-3298 3293 3292 0
-3298 3293 420 0
-3294 3299 0
-421 3299 0
-3299 3294 421 0
-3295 3300 0
-3294 -421 3300 0
-3300 3295 3294 0
-3300 3295 421 0
-3296 3301 0
-3295 -421 3301 0
-3301 3296 3295 0
-3301 3296 421 0
-3297 3302 0
-3296 -421 3302 0
-3302 3297 3296 0
-3302 3297 421 0
-3298 3303 0
-3297 -421 3303 0
-3303 3298 3297 0
-3303 3298 421 0
-3299 3304 0
-422 3304 0
-3304 3299 422 0
-3300 3305 0
-3299 -422 3305 0
-3305 3300 3299 0
-3305 3300 422 0
-3301 3306 0
-3300 -422 3306 0
-3306 3301 3300 0
-3306 3301 422 0
-3302 3307 0
-3301 -422 3307 0
-3307 3302 3301 0
-3307 3302 422 0
-3303 3308 0
-3302 -422 3308 0
-3308 3303 3302 0
-3308 3303 422 0
-3304 3309 0
-423 3309 0
-3309 3304 423 0
-3305 3310 0
-3304 -423 3310 0
-3310 3305 3304 0
-3310 3305 423 0
-3306 3311 0
-3305 -423 3311 0
-3311 3306 3305 0
-3311 3306 423 0
-3307 3312 0
-3306 -423 3312 0
-3312 3307 3306 0
-3312 3307 423 0
-3308 3313 0
-3307 -423 3313 0
-3313 3308 3307 0
-3313 3308 423 0
-3309 3314 0
-424 3314 0
-3314 3309 424 0
-3310 3315 0
-3309 -424 3315 0
-3315 3310 3309 0
-3315 3310 424 0
-3311 3316 0
-3310 -424 3316 0
-3316 3311 3310 0
-3316 3311 424 0
-3312 3317 0
-3311 -424 3317 0
-3317 3312 3311 0
-3317 3312 424 0
-3313 3318 0
-3312 -424 3318 0
-3318 3313 3312 0
-3318 3313 424 0
-3314 3319 0
-425 3319 0
-3319 3314 425 0
-3315 3320 0
-3314 -425 3320 0
-3320 3315 3314 0
-3320 3315 425 0
-3316 3321 0
-3315 -425 3321 0
-3321 3316 3315 0
-3321 3316 425 0
-3317 3322 0
-3316 -425 3322 0
-3322 3317 3316 0
-3322 3317 425 0
-3318 3323 0
-3317 -425 3323 0
-3323 3318 3317 0
-3323 3318 425 0
-3319 3324 0
-426 3324 0
-3324 3319 426 0
-3320 3325 0
-3319 -426 3325 0
-3325 3320 3319 0
-3325 3320 426 0
-3321 3326 0
-3320 -426 3326 0
-3326 3321 3320 0
-3326 3321 426 0
-3322 3327 0
-3321 -426 3327 0
-3327 3322 3321 0
-3327 3322 426 0
-3323 3328 0
-3322 -426 3328 0
-3328 3323 3322 0
-3328 3323 426 0
-3324 3329 0
-427 3329 0
-3329 3324 427 0
-3325 3330 0
-3324 -427 3330 0
-3330 3325 3324 0
-3330 3325 427 0
-3326 3331 0
-3325 -427 3331 0
-3331 3326 3325 0
-3331 3326 427 0
-3327 3332 0
-3326 -427 3332 0
-3332 3327 3326 0
-3332 3327 427 0
-3328 3333 0
-3327 -427 3333 0
-3333 3328 3327 0
-3333 3328 427 0
-3329 3334 0
-428 3334 0
-3334 3329 428 0
-3330 3335 0
-3329 -428 3335 0
-3335 3330 3329 0
-3335 3330 428 0
-3331 3336 0
-3330 -428 3336 0
-3336 3331 3330 0
-3336 3331 428 0
-3332 3337 0
-3331 -428 3337 0
-3337 3332 3331 0
-3337 3332 428 0
-3333 3338 0
-3332 -428 3338 0
-3338 3333 3332 0
-3338 3333 428 0
-3334 3339 0
-429 3339 0
-3339 3334 429 0
-3335 3340 0
-3334 -429 3340 0
-3340 3335 3334 0
-3340 3335 429 0
-3336 3341 0
-3335 -429 3341 0
-3341 3336 3335 0
-3341 3336 429 0
-3337 3342 0
-3336 -429 3342 0
-3342 3337 3336 0
-3342 3337 429 0
-3338 3343 0
-3337 -429 3343 0
-3343 3338 3337 0
-3343 3338 429 0
-3339 3344 0
-430 3344 0
-3344 3339 430 0
-3340 3345 0
-3339 -430 3345 0
-3345 3340 3339 0
-3345 3340 430 0
-3341 3346 0
-3340 -430 3346 0
-3346 3341 3340 0
-3346 3341 430 0
-3342 3347 0
-3341 -430 3347 0
-3347 3342 3341 0
-3347 3342 430 0
-3343 3348 0
-3342 -430 3348 0
-3348 3343 3342 0
-3348 3343 430 0
-3344 3349 0
-431 3349 0
-3349 3344 431 0
-3345 3350 0
-3344 -431 3350 0
-3350 3345 3344 0
-3350 3345 431 0
-3346 3351 0
-3345 -431 3351 0
-3351 3346 3345 0
-3351 3346 431 0
-3347 3352 0
-3346 -431 3352 0
-3352 3347 3346 0
-3352 3347 431 0
-3348 3353 0
-3347 -431 3353 0
-3353 3348 3347 0
-3353 3348 431 0
-3349 3354 0
-432 3354 0
-3354 3349 432 0
-3350 3355 0
-3349 -432 3355 0
-3355 3350 3349 0
-3355 3350 432 0
-3351 3356 0
-3350 -432 3356 0
-3356 3351 3350 0
-3356 3351 432 0
-3352 3357 0
-3351 -432 3357 0
-3357 3352 3351 0
-3357 3352 432 0
-3353 3358 0
-3352 -432 3358 0
-3358 3353 3352 0
-3358 3353 432 0
-3354 3359 0
-433 3359 0
-3359 3354 433 0
-3355 3360 0
-3354 -433 3360 0
-3360 3355 3354 0
-3360 3355 433 0
-3356 3361 0
-3355 -433 3361 0
-3361 3356 3355 0
-3361 3356 433 0
-3357 3362 0
-3356 -433 3362 0
-3362 3357 3356 0
-3362 3357 433 0
-3358 3363 0
-3357 -433 3363 0
-3363 3358 3357 0
-3363 3358 433 0
-3359 3364 0
-434 3364 0
-3364 3359 434 0
-3360 3365 0
-3359 -434 3365 0
-3365 3360 3359 0
-3365 3360 434 0
-3361 3366 0
-3360 -434 3366 0
-3366 3361 3360 0
-3366 3361 434 0
-3362 3367 0
-3361 -434 3367 0
-3367 3362 3361 0
-3367 3362 434 0
-3363 3368 0
-3362 -434 3368 0
-3368 3363 3362 0
-3368 3363 434 0
-3364 3369 0
-435 3369 0
-3369 3364 435 0
-3365 3370 0
-3364 -435 3370 0
-3370 3365 3364 0
-3370 3365 435 0
-3366 3371 0
-3365 -435 3371 0
-3371 3366 3365 0
-3371 3366 435 0
-3367 3372 0
-3366 -435 3372 0
-3372 3367 3366 0
-3372 3367 435 0
-3368 3373 0
-3367 -435 3373 0
-3373 3368 3367 0
-3373 3368 435 0
-3369 3374 0
-436 3374 0
-3374 3369 436 0
-3370 3375 0
-3369 -436 3375 0
-3375 3370 3369 0
-3375 3370 436 0
-3371 3376 0
-3370 -436 3376 0
-3376 3371 3370 0
-3376 3371 436 0
-3372 3377 0
-3371 -436 3377 0
-3377 3372 3371 0
-3377 3372 436 0
-3373 3378 0
-3372 -436 3378 0
-3378 3373 3372 0
-3378 3373 436 0
-3374 3379 0
-437 3379 0
-3379 3374 437 0
-3375 3380 0
-3374 -437 3380 0
-3380 3375 3374 0
-3380 3375 437 0
-3376 3381 0
-3375 -437 3381 0
-3381 3376 3375 0
-3381 3376 437 0
-3377 3382 0
-3376 -437 3382 0
-3382 3377 3376 0
-3382 3377 437 0
-3378 3383 0
-3377 -437 3383 0
-3383 3378 3377 0
-3383 3378 437 0
-3379 3384 0
-438 3384 0
-3384 3379 438 0
-3380 3385 0
-3379 -438 3385 0
-3385 3380 3379 0
-3385 3380 438 0
-3381 3386 0
-3380 -438 3386 0
-3386 3381 3380 0
-3386 3381 438 0
-3382 3387 0
-3381 -438 3387 0
-3387 3382 3381 0
-3387 3382 438 0
-3383 3388 0
-3382 -438 3388 0
-3388 3383 3382 0
-3388 3383 438 0
-3384 3389 0
-439 3389 0
-3389 3384 439 0
-3385 3390 0
-3384 -439 3390 0
-3390 3385 3384 0
-3390 3385 439 0
-3386 3391 0
-3385 -439 3391 0
-3391 3386 3385 0
-3391 3386 439 0
-3387 3392 0
-3386 -439 3392 0
-3392 3387 3386 0
-3392 3387 439 0
-3388 3393 0
-3387 -439 3393 0
-3393 3388 3387 0
-3393 3388 439 0
-3389 3394 0
-440 3394 0
-3394 3389 440 0
-3390 3395 0
-3389 -440 3395 0
-3395 3390 3389 0
-3395 3390 440 0
-3391 3396 0
-3390 -440 3396 0
-3396 3391 3390 0
-3396 3391 440 0
-3392 3397 0
-3391 -440 3397 0
-3397 3392 3391 0
-3397 3392 440 0
-3393 3398 0
-3392 -440 3398 0
-3398 3393 3392 0
-3398 3393 440 0
-3394 3399 0
-441 3399 0
-3399 3394 441 0
-3395 3400 0
-3394 -441 3400 0
-3400 3395 3394 0
-3400 3395 441 0
-3396 3401 0
-3395 -441 3401 0
-3401 3396 3395 0
-3401 3396 441 0
-3397 3402 0
-3396 -441 3402 0
-3402 3397 3396 0
-3402 3397 441 0
-3398 3403 0
-3397 -441 3403 0
-3403 3398 3397 0
-3403 3398 441 0
-3399 3404 0
-442 3404 0
-3404 3399 442 0
-3400 3405 0
-3399 -442 3405 0
-3405 3400 3399 0
-3405 3400 442 0
-3401 3406 0
-3400 -442 3406 0
-3406 3401 3400 0
-3406 3401 442 0
-3402 3407 0
-3401 -442 3407 0
-3407 3402 3401 0
-3407 3402 442 0
-3403 3408 0
-3402 -442 3408 0
-3408 3403 3402 0
-3408 3403 442 0
-3404 3409 0
-443 3409 0
-3409 3404 443 0
-3405 3410 0
-3404 -443 3410 0
-3410 3405 3404 0
-3410 3405 443 0
-3406 3411 0
-3405 -443 3411 0
-3411 3406 3405 0
-3411 3406 443 0
-3407 3412 0
-3406 -443 3412 0
-3412 3407 3406 0
-3412 3407 443 0
-3408 3413 0
-3407 -443 3413 0
-3413 3408 3407 0
-3413 3408 443 0
-3409 3414 0
-444 3414 0
-3414 3409 444 0
-3410 3415 0
-3409 -444 3415 0
-3415 3410 3409 0
-3415 3410 444 0
-3411 3416 0
-3410 -444 3416 0
-3416 3411 3410 0
-3416 3411 444 0
-3412 3417 0
-3411 -444 3417 0
-3417 3412 3411 0
-3417 3412 444 0
-3413 3418 0
-3412 -444 3418 0
-3418 3413 3412 0
-3418 3413 444 0
-3414 3419 0
-445 3419 0
-3419 3414 445 0
-3415 3420 0
-3414 -445 3420 0
-3420 3415 3414 0
-3420 3415 445 0
-3416 3421 0
-3415 -445 3421 0
-3421 3416 3415 0
-3421 3416 445 0
-3417 3422 0
-3416 -445 3422 0
-3422 3417 3416 0
-3422 3417 445 0
-3418 3423 0
-3417 -445 3423 0
-3423 3418 3417 0
-3423 3418 445 0
-3419 3424 0
-446 3424 0
-3424 3419 446 0
-3420 3425 0
-3419 -446 3425 0
-3425 3420 3419 0
-3425 3420 446 0
-3421 3426 0
-3420 -446 3426 0
-3426 3421 3420 0
-3426 3421 446 0
-3422 3427 0
-3421 -446 3427 0
-3427 3422 3421 0
-3427 3422 446 0
-3423 3428 0
-3422 -446 3428 0
-3428 3423 3422 0
-3428 3423 446 0
-3424 3429 0
-447 3429 0
-3429 3424 447 0
-3425 3430 0
-3424 -447 3430 0
-3430 3425 3424 0
-3430 3425 447 0
-3426 3431 0
-3425 -447 3431 0
-3431 3426 3425 0
-3431 3426 447 0
-3427 3432 0
-3426 -447 3432 0
-3432 3427 3426 0
-3432 3427 447 0
-3428 3433 0
-3427 -447 3433 0
-3433 3428 3427 0
-3433 3428 447 0
-3429 3434 0
-448 3434 0
-3434 3429 448 0
-3430 3435 0
-3429 -448 3435 0
-3435 3430 3429 0
-3435 3430 448 0
-3431 3436 0
-3430 -448 3436 0
-3436 3431 3430 0
-3436 3431 448 0
-3432 3437 0
-3431 -448 3437 0
-3437 3432 3431 0
-3437 3432 448 0
-3433 3438 0
-3432 -448 3438 0
-3438 3433 3432 0
-3438 3433 448 0
-3434 3439 0
-449 3439 0
-3439 3434 449 0
-3435 3440 0
-3434 -449 3440 0
-3440 3435 3434 0
-3440 3435 449 0
-3436 3441 0
-3435 -449 3441 0
-3441 3436 3435 0
-3441 3436 449 0
-3437 3442 0
-3436 -449 3442 0
-3442 3437 3436 0
-3442 3437 449 0
-3438 3443 0
-3437 -449 3443 0
-3443 3438 3437 0
-3443 3438 449 0
-3439 3444 0
-450 3444 0
-3444 3439 450 0
-3440 3445 0
-3439 -450 3445 0
-3445 3440 3439 0
-3445 3440 450 0
-3441 3446 0
-3440 -450 3446 0
-3446 3441 3440 0
-3446 3441 450 0
-3442 3447 0
-3441 -450 3447 0
-3447 3442 3441 0
-3447 3442 450 0
-3443 3448 0
-3442 -450 3448 0
-3448 3443 3442 0
-3448 3443 450 0
-3444 3449 0
-451 3449 0
-3449 3444 451 0
-3445 3450 0
-3444 -451 3450 0
-3450 3445 3444 0
-3450 3445 451 0
-3446 3451 0
-3445 -451 3451 0
-3451 3446 3445 0
-3451 3446 451 0
-3447 3452 0
-3446 -451 3452 0
-3452 3447 3446 0
-3452 3447 451 0
-3448 3453 0
-3447 -451 3453 0
-3453 3448 3447 0
-3453 3448 451 0
-3449 3454 0
-452 3454 0
-3454 3449 452 0
-3450 3455 0
-3449 -452 3455 0
-3455 3450 3449 0
-3455 3450 452 0
-3451 3456 0
-3450 -452 3456 0
-3456 3451 3450 0
-3456 3451 452 0
-3452 3457 0
-3451 -452 3457 0
-3457 3452 3451 0
-3457 3452 452 0
-3453 3458 0
-3452 -452 3458 0
-3458 3453 3452 0
-3458 3453 452 0
-3454 3459 0
-453 3459 0
-3459 3454 453 0
-3455 3460 0
-3454 -453 3460 0
-3460 3455 3454 0
-3460 3455 453 0
-3456 3461 0
-3455 -453 3461 0
-3461 3456 3455 0
-3461 3456 453 0
-3457 3462 0
-3456 -453 3462 0
-3462 3457 3456 0
-3462 3457 453 0
-3458 3463 0
-3457 -453 3463 0
-3463 3458 3457 0
-3463 3458 453 0
-3459 3464 0
-454 3464 0
-3464 3459 454 0
-3460 3465 0
-3459 -454 3465 0
-3465 3460 3459 0
-3465 3460 454 0
-3461 3466 0
-3460 -454 3466 0
-3466 3461 3460 0
-3466 3461 454 0
-3462 3467 0
-3461 -454 3467 0
-3467 3462 3461 0
-3467 3462 454 0
-3463 3468 0
-3462 -454 3468 0
-3468 3463 3462 0
-3468 3463 454 0
-3464 3469 0
-455 3469 0
-3469 3464 455 0
-3465 3470 0
-3464 -455 3470 0
-3470 3465 3464 0
-3470 3465 455 0
-3466 3471 0
-3465 -455 3471 0
-3471 3466 3465 0
-3471 3466 455 0
-3467 3472 0
-3466 -455 3472 0
-3472 3467 3466 0
-3472 3467 455 0
-3468 3473 0
-3467 -455 3473 0
-3473 3468 3467 0
-3473 3468 455 0
-3469 3474 0
-456 3474 0
-3474 3469 456 0
-3470 3475 0
-3469 -456 3475 0
-3475 3470 3469 0
-3475 3470 456 0
-3471 3476 0
-3470 -456 3476 0
-3476 3471 3470 0
-3476 3471 456 0
-3472 3477 0
-3471 -456 3477 0
-3477 3472 3471 0
-3477 3472 456 0
-3473 3478 0
-3472 -456 3478 0
-3478 3473 3472 0
-3478 3473 456 0
-3474 3479 0
-457 3479 0
-3479 3474 457 0
-3475 3480 0
-3474 -457 3480 0
-3480 3475 3474 0
-3480 3475 457 0
-3476 3481 0
-3475 -457 3481 0
-3481 3476 3475 0
-3481 3476 457 0
-3477 3482 0
-3476 -457 3482 0
-3482 3477 3476 0
-3482 3477 457 0
-3478 3483 0
-3477 -457 3483 0
-3483 3478 3477 0
-3483 3478 457 0
-3479 3484 0
-458 3484 0
-3484 3479 458 0
-3480 3485 0
-3479 -458 3485 0
-3485 3480 3479 0
-3485 3480 458 0
-3481 3486 0
-3480 -458 3486 0
-3486 3481 3480 0
-3486 3481 458 0
-3482 3487 0
-3481 -458 3487 0
-3487 3482 3481 0
-3487 3482 458 0
-3483 3488 0
-3482 -458 3488 0
-3488 3483 3482 0
-3488 3483 458 0
-3484 3489 0
-459 3489 0
-3489 3484 459 0
-3485 3490 0
-3484 -459 3490 0
-3490 3485 3484 0
-3490 3485 459 0
-3486 3491 0
-3485 -459 3491 0
-3491 3486 3485 0
-3491 3486 459 0
-3487 3492 0
-3486 -459 3492 0
-3492 3487 3486 0
-3492 3487 459 0
-3488 3493 0
-3487 -459 3493 0
-3493 3488 3487 0
-3493 3488 459 0
-3489 3494 0
-460 3494 0
-3494 3489 460 0
-3490 3495 0
-3489 -460 3495 0
-3495 3490 3489 0
-3495 3490 460 0
-3491 3496 0
-3490 -460 3496 0
-3496 3491 3490 0
-3496 3491 460 0
-3492 3497 0
-3491 -460 3497 0
-3497 3492 3491 0
-3497 3492 460 0
-3493 3498 0
-3492 -460 3498 0
-3498 3493 3492 0
-3498 3493 460 0
-3494 3499 0
-461 3499 0
-3499 3494 461 0
-3495 3500 0
-3494 -461 3500 0
-3500 3495 3494 0
-3500 3495 461 0
-3496 3501 0
-3495 -461 3501 0
-3501 3496 3495 0
-3501 3496 461 0
-3497 3502 0
-3496 -461 3502 0
-3502 3497 3496 0
-3502 3497 461 0
-3498 3503 0
-3497 -461 3503 0
-3503 3498 3497 0
-3503 3498 461 0
-3499 3504 0
-462 3504 0
-3504 3499 462 0
-3500 3505 0
-3499 -462 3505 0
-3505 3500 3499 0
-3505 3500 462 0
-3501 3506 0
-3500 -462 3506 0
-3506 3501 3500 0
-3506 3501 462 0
-3502 3507 0
-3501 -462 3507 0
-3507 3502 3501 0
-3507 3502 462 0
-3503 3508 0
-3502 -462 3508 0
-3508 3503 3502 0
-3508 3503 462 0
-3504 3509 0
-463 3509 0
-3509 3504 463 0
-3505 3510 0
-3504 -463 3510 0
-3510 3505 3504 0
-3510 3505 463 0
-3506 3511 0
-3505 -463 3511 0
-3511 3506 3505 0
-3511 3506 463 0
-3507 3512 0
-3506 -463 3512 0
-3512 3507 3506 0
-3512 3507 463 0
-3508 3513 0
-3507 -463 3513 0
-3513 3508 3507 0
-3513 3508 463 0
-3509 3514 0
-464 3514 0
-3514 3509 464 0
-3510 3515 0
-3509 -464 3515 0
-3515 3510 3509 0
-3515 3510 464 0
-3511 3516 0
-3510 -464 3516 0
-3516 3511 3510 0
-3516 3511 464 0
-3512 3517 0
-3511 -464 3517 0
-3517 3512 3511 0
-3517 3512 464 0
-3513 3518 0
-3512 -464 3518 0
-3518 3513 3512 0
-3518 3513 464 0
-3514 3519 0
-465 3519 0
-3519 3514 465 0
-3515 3520 0
-3514 -465 3520 0
-3520 3515 3514 0
-3520 3515 465 0
-3516 3521 0
-3515 -465 3521 0
-3521 3516 3515 0
-3521 3516 465 0
-3517 3522 0
-3516 -465 3522 0
-3522 3517 3516 0
-3522 3517 465 0
-3518 3523 0
-3517 -465 3523 0
-3523 3518 3517 0
-3523 3518 465 0
-3519 3524 0
-466 3524 0
-3524 3519 466 0
-3520 3525 0
-3519 -466 3525 0
-3525 3520 3519 0
-3525 3520 466 0
-3521 3526 0
-3520 -466 3526 0
-3526 3521 3520 0
-3526 3521 466 0
-3522 3527 0
-3521 -466 3527 0
-3527 3522 3521 0
-3527 3522 466 0
-3523 3528 0
-3522 -466 3528 0
-3528 3523 3522 0
-3528 3523 466 0
-3524 3529 0
-467 3529 0
-3529 3524 467 0
-3525 3530 0
-3524 -467 3530 0
-3530 3525 3524 0
-3530 3525 467 0
-3526 3531 0
-3525 -467 3531 0
-3531 3526 3525 0
-3531 3526 467 0
-3527 3532 0
-3526 -467 3532 0
-3532 3527 3526 0
-3532 3527 467 0
-3528 3533 0
-3527 -467 3533 0
-3533 3528 3527 0
-3533 3528 467 0
-3529 3534 0
-468 3534 0
-3534 3529 468 0
-3530 3535 0
-3529 -468 3535 0
-3535 3530 3529 0
-3535 3530 468 0
-3531 3536 0
-3530 -468 3536 0
-3536 3531 3530 0
-3536 3531 468 0
-3532 3537 0
-3531 -468 3537 0
-3537 3532 3531 0
-3537 3532 468 0
-3533 3538 0
-3532 -468 3538 0
-3538 3533 3532 0
-3538 3533 468 0
-3534 3539 0
-469 3539 0
-3539 3534 469 0
-3535 3540 0
-3534 -469 3540 0
-3540 3535 3534 0
-3540 3535 469 0
-3536 3541 0
-3535 -469 3541 0
-3541 3536 3535 0
-3541 3536 469 0
-3537 3542 0
-3536 -469 3542 0
-3542 3537 3536 0
-3542 3537 469 0
-3538 3543 0
-3537 -469 3543 0
-3543 3538 3537 0
-3543 3538 469 0
-3539 3544 0
-470 3544 0
-3544 3539 470 0
-3540 3545 0
-3539 -470 3545 0
-3545 3540 3539 0
-3545 3540 470 0
-3541 3546 0
-3540 -470 3546 0
-3546 3541 3540 0
-3546 3541 470 0
-3542 3547 0
-3541 -470 3547 0
-3547 3542 3541 0
-3547 3542 470 0
-3543 3548 0
-3542 -470 3548 0
-3548 3543 3542 0
-3548 3543 470 0
-3544 3549 0
-471 3549 0
-3549 3544 471 0
-3545 3550 0
-3544 -471 3550 0
-3550 3545 3544 0
-3550 3545 471 0
-3546 3551 0
-3545 -471 3551 0
-3551 3546 3545 0
-3551 3546 471 0
-3547 3552 0
-3546 -471 3552 0
-3552 3547 3546 0
-3552 3547 471 0
-3548 3553 0
-3547 -471 3553 0
-3553 3548 3547 0
-3553 3548 471 0
-3549 3554 0
-472 3554 0
-3554 3549 472 0
-3550 3555 0
-3549 -472 3555 0
-3555 3550 3549 0
-3555 3550 472 0
-3551 3556 0
-3550 -472 3556 0
-3556 3551 3550 0
-3556 3551 472 0
-3552 3557 0
-3551 -472 3557 0
-3557 3552 3551 0
-3557 3552 472 0
-3553 3558 0
-3552 -472 3558 0
-3558 3553 3552 0
-3558 3553 472 0
-3554 3559 0
-473 3559 0
-3559 3554 473 0
-3555 3560 0
-3554 -473 3560 0
-3560 3555 3554 0
-3560 3555 473 0
-3556 3561 0
-3555 -473 3561 0
-3561 3556 3555 0
-3561 3556 473 0
-3557 3562 0
-3556 -473 3562 0
-3562 3557 3556 0
-3562 3557 473 0
-3558 3563 0
-3557 -473 3563 0
-3563 3558 3557 0
-3563 3558 473 0
-3559 3564 0
-474 3564 0
-3564 3559 474 0
-3560 3565 0
-3559 -474 3565 0
-3565 3560 3559 0
-3565 3560 474 0
-3561 3566 0
-3560 -474 3566 0
-3566 3561 3560 0
-3566 3561 474 0
-3562 3567 0
-3561 -474 3567 0
-3567 3562 3561 0
-3567 3562 474 0
-3563 3568 0
-3562 -474 3568 0
-3568 3563 3562 0
-3568 3563 474 0
-3564 3569 0
-475 3569 0
-3569 3564 475 0
-3565 3570 0
-3564 -475 3570 0
-3570 3565 3564 0
-3570 3565 475 0
-3566 3571 0
-3565 -475 3571 0
-3571 3566 3565 0
-3571 3566 475 0
-3567 3572 0
-3566 -475 3572 0
-3572 3567 3566 0
-3572 3567 475 0
-3568 3573 0
-3567 -475 3573 0
-3573 3568 3567 0
-3573 3568 475 0
-3569 3574 0
-476 3574 0
-3574 3569 476 0
-3570 3575 0
-3569 -476 3575 0
-3575 3570 3569 0
-3575 3570 476 0
-3571 3576 0
-3570 -476 3576 0
-3576 3571 3570 0
-3576 3571 476 0
-3572 3577 0
-3571 -476 3577 0
-3577 3572 3571 0
-3577 3572 476 0
-3573 3578 0
-3572 -476 3578 0
-3578 3573 3572 0
-3578 3573 476 0
-3574 3579 0
-477 3579 0
-3579 3574 477 0
-3575 3580 0
-3574 -477 3580 0
-3580 3575 3574 0
-3580 3575 477 0
-3576 3581 0
-3575 -477 3581 0
-3581 3576 3575 0
-3581 3576 477 0
-3577 3582 0
-3576 -477 3582 0
-3582 3577 3576 0
-3582 3577 477 0
-3578 3583 0
-3577 -477 3583 0
-3583 3578 3577 0
-3583 3578 477 0
-3579 3584 0
-478 3584 0
-3584 3579 478 0
-3580 3585 0
-3579 -478 3585 0
-3585 3580 3579 0
-3585 3580 478 0
-3581 3586 0
-3580 -478 3586 0
-3586 3581 3580 0
-3586 3581 478 0
-3582 3587 0
-3581 -478 3587 0
-3587 3582 3581 0
-3587 3582 478 0
-3583 3588 0
-3582 -478 3588 0
-3588 3583 3582 0
-3588 3583 478 0
-3584 3589 0
-479 3589 0
-3589 3584 479 0
-3585 3590 0
-3584 -479 3590 0
-3590 3585 3584 0
-3590 3585 479 0
-3586 3591 0
-3585 -479 3591 0
-3591 3586 3585 0
-3591 3586 479 0
-3587 3592 0
-3586 -479 3592 0
-3592 3587 3586 0
-3592 3587 479 0
-3588 3593 0
-3587 -479 3593 0
-3593 3588 3587 0
-3593 3588 479 0
-3589 3594 0
-480 3594 0
-3594 3589 480 0
-3590 3595 0
-3589 -480 3595 0
-3595 3590 3589 0
-3595 3590 480 0
-3591 3596 0
-3590 -480 3596 0
-3596 3591 3590 0
-3596 3591 480 0
-3592 3597 0
-3591 -480 3597 0
-3597 3592 3591 0
-3597 3592 480 0
-3593 3598 0
-3592 -480 3598 0
-3598 3593 3592 0
-3598 3593 480 0
-3594 3599 0
-481 3599 0
-3599 3594 481 0
-3595 3600 0
-3594 -481 3600 0
-3600 3595 3594 0
-3600 3595 481 0
-3596 3601 0
-3595 -481 3601 0
-3601 3596 3595 0
-3601 3596 481 0
-3597 3602 0
-3596 -481 3602 0
-3602 3597 3596 0
-3602 3597 481 0
-3598 3603 0
-3597 -481 3603 0
-3603 3598 3597 0
-3603 3598 481 0
-3599 3604 0
-482 3604 0
-3604 3599 482 0
-3600 3605 0
-3599 -482 3605 0
-3605 3600 3599 0
-3605 3600 482 0
-3601 3606 0
-3600 -482 3606 0
-3606 3601 3600 0
-3606 3601 482 0
-3602 3607 0
-3601 -482 3607 0
-3607 3602 3601 0
-3607 3602 482 0
-3603 3608 0
-3602 -482 3608 0
-3608 3603 3602 0
-3608 3603 482 0
-3604 3609 0
-483 3609 0
-3609 3604 483 0
-3605 3610 0
-3604 -483 3610 0
-3610 3605 3604 0
-3610 3605 483 0
-3606 3611 0
-3605 -483 3611 0
-3611 3606 3605 0
-3611 3606 483 0
-3607 3612 0
-3606 -483 3612 0
-3612 3607 3606 0
-3612 3607 483 0
-3608 3613 0
-3607 -483 3613 0
-3613 3608 3607 0
-3613 3608 483 0
-3609 3614 0
-484 3614 0
-3614 3609 484 0
-3610 3615 0
-3609 -484 3615 0
-3615 3610 3609 0
-3615 3610 484 0
-3611 3616 0
-3610 -484 3616 0
-3616 3611 3610 0
-3616 3611 484 0
-3612 3617 0
-3611 -484 3617 0
-3617 3612 3611 0
-3617 3612 484 0
-3613 3618 0
-3612 -484 3618 0
-3618 3613 3612 0
-3618 3613 484 0
-3614 3619 0
-485 3619 0
-3619 3614 485 0
-3615 3620 0
-3614 -485 3620 0
-3620 3615 3614 0
-3620 3615 485 0
-3616 3621 0
-3615 -485 3621 0
-3621 3616 3615 0
-3621 3616 485 0
-3617 3622 0
-3616 -485 3622 0
-3622 3617 3616 0
-3622 3617 485 0
-3618 3623 0
-3617 -485 3623 0
-3623 3618 3617 0
-3623 3618 485 0
-3619 3624 0
-486 3624 0
-3624 3619 486 0
-3620 3625 0
-3619 -486 3625 0
-3625 3620 3619 0
-3625 3620 486 0
-3621 3626 0
-3620 -486 3626 0
-3626 3621 3620 0
-3626 3621 486 0
-3622 3627 0
-3621 -486 3627 0
-3627 3622 3621 0
-3627 3622 486 0
-3623 3628 0
-3622 -486 3628 0
-3628 3623 3622 0
-3628 3623 486 0
-3624 3629 0
-487 3629 0
-3629 3624 487 0
-3625 3630 0
-3624 -487 3630 0
-3630 3625 3624 0
-3630 3625 487 0
-3626 3631 0
-3625 -487 3631 0
-3631 3626 3625 0
-3631 3626 487 0
-3627 3632 0
-3626 -487 3632 0
-3632 3627 3626 0
-3632 3627 487 0
-3628 3633 0
-3627 -487 3633 0
-3633 3628 3627 0
-3633 3628 487 0
-3629 3634 0
-488 3634 0
-3634 3629 488 0
-3630 3635 0
-3629 -488 3635 0
-3635 3630 3629 0
-3635 3630 488 0
-3631 3636 0
-3630 -488 3636 0
-3636 3631 3630 0
-3636 3631 488 0
-3632 3637 0
-3631 -488 3637 0
-3637 3632 3631 0
-3637 3632 488 0
-3633 3638 0
-3632 -488 3638 0
-3638 3633 3632 0
-3638 3633 488 0
-3634 3639 0
-489 3639 0
-3639 3634 489 0
-3635 3640 0
-3634 -489 3640 0
-3640 3635 3634 0
-3640 3635 489 0
-3636 3641 0
-3635 -489 3641 0
-3641 3636 3635 0
-3641 3636 489 0
-3637 3642 0
-3636 -489 3642 0
-3642 3637 3636 0
-3642 3637 489 0
-3638 3643 0
-3637 -489 3643 0
-3643 3638 3637 0
-3643 3638 489 0
-3639 3644 0
-490 3644 0
-3644 3639 490 0
-3640 3645 0
-3639 -490 3645 0
-3645 3640 3639 0
-3645 3640 490 0
-3641 3646 0
-3640 -490 3646 0
-3646 3641 3640 0
-3646 3641 490 0
-3642 3647 0
-3641 -490 3647 0
-3647 3642 3641 0
-3647 3642 490 0
-3643 3648 0
-3642 -490 3648 0
-3648 3643 3642 0
-3648 3643 490 0
-3644 3649 0
-491 3649 0
-3649 3644 491 0
-3645 3650 0
-3644 -491 3650 0
-3650 3645 3644 0
-3650 3645 491 0
-3646 3651 0
-3645 -491 3651 0
-3651 3646 3645 0
-3651 3646 491 0
-3647 3652 0
-3646 -491 3652 0
-3652 3647 3646 0
-3652 3647 491 0
-3648 3653 0
-3647 -491 3653 0
-3653 3648 3647 0
-3653 3648 491 0
-3649 3654 0
-492 3654 0
-3654 3649 492 0
-3650 3655 0
-3649 -492 3655 0
-3655 3650 3649 0
-3655 3650 492 0
-3651 3656 0
-3650 -492 3656 0
-3656 3651 3650 0
-3656 3651 492 0
-3652 3657 0
-3651 -492 3657 0
-3657 3652 3651 0
-3657 3652 492 0
-3653 3658 0
-3652 -492 3658 0
-3658 3653 3652 0
-3658 3653 492 0
-3654 3659 0
-493 3659 0
-3659 3654 493 0
-3655 3660 0
-3654 -493 3660 0
-3660 3655 3654 0
-3660 3655 493 0
-3656 3661 0
-3655 -493 3661 0
-3661 3656 3655 0
-3661 3656 493 0
-3657 3662 0
-3656 -493 3662 0
-3662 3657 3656 0
-3662 3657 493 0
-3658 3663 0
-3657 -493 3663 0
-3663 3658 3657 0
-3663 3658 493 0
-3659 3664 0
-494 3664 0
-3664 3659 494 0
-3660 3665 0
-3659 -494 3665 0
-3665 3660 3659 0
-3665 3660 494 0
-3661 3666 0
-3660 -494 3666 0
-3666 3661 3660 0
-3666 3661 494 0
-3662 3667 0
-3661 -494 3667 0
-3667 3662 3661 0
-3667 3662 494 0
-3663 3668 0
-3662 -494 3668 0
-3668 3663 3662 0
-3668 3663 494 0
-3664 3669 0
-495 3669 0
-3669 3664 495 0
-3665 3670 0
-3664 -495 3670 0
-3670 3665 3664 0
-3670 3665 495 0
-3666 3671 0
-3665 -495 3671 0
-3671 3666 3665 0
-3671 3666 495 0
-3667 3672 0
-3666 -495 3672 0
-3672 3667 3666 0
-3672 3667 495 0
-3668 3673 0
-3667 -495 3673 0
-3673 3668 3667 0
-3673 3668 495 0
-3669 3674 0
-496 3674 0
-3674 3669 496 0
-3670 3675 0
-3669 -496 3675 0
-3675 3670 3669 0
-3675 3670 496 0
-3671 3676 0
-3670 -496 3676 0
-3676 3671 3670 0
-3676 3671 496 0
-3672 3677 0
-3671 -496 3677 0
-3677 3672 3671 0
-3677 3672 496 0
-3673 3678 0
-3672 -496 3678 0
-3678 3673 3672 0
-3678 3673 496 0
-3674 3679 0
-497 3679 0
-3679 3674 497 0
-3675 3680 0
-3674 -497 3680 0
-3680 3675 3674 0
-3680 3675 497 0
-3676 3681 0
-3675 -497 3681 0
-3681 3676 3675 0
-3681 3676 497 0
-3677 3682 0
-3676 -497 3682 0
-3682 3677 3676 0
-3682 3677 497 0
-3678 3683 0
-3677 -497 3683 0
-3683 3678 3677 0
-3683 3678 497 0
-3679 3684 0
-498 3684 0
-3684 3679 498 0
-3680 3685 0
-3679 -498 3685 0
-3685 3680 3679 0
-3685 3680 498 0
-3681 3686 0
-3680 -498 3686 0
-3686 3681 3680 0
-3686 3681 498 0
-3682 3687 0
-3681 -498 3687 0
-3687 3682 3681 0
-3687 3682 498 0
-3683 3688 0
-3682 -498 3688 0
-3688 3683 3682 0
-3688 3683 498 0
-3684 3689 0
-499 3689 0
-3689 3684 499 0
-3685 3690 0
-3684 -499 3690 0
-3690 3685 3684 0
-3690 3685 499 0
-3686 3691 0
-3685 -499 3691 0
-3691 3686 3685 0
-3691 3686 499 0
-3687 3692 0
-3686 -499 3692 0
-3692 3687 3686 0
-3692 3687 499 0
-3688 3693 0
-3687 -499 3693 0
-3693 3688 3687 0
-3693 3688 499 0
-3689 3694 0
-500 3694 0
-3694 3689 500 0
-3690 3695 0
-3689 -500 3695 0
-3695 3690 3689 0
-3695 3690 500 0
-3691 3696 0
-3690 -500 3696 0
-3696 3691 3690 0
-3696 3691 500 0
-3692 3697 0
-3691 -500 3697 0
-3697 3692 3691 0
-3697 3692 500 0
-3693 3698 0
-3692 -500 3698 0
-3698 3693 3692 0
-3698 3693 500 0
-3694 3699 0
-501 3699 0
-3699 3694 501 0
-3695 3700 0
-3694 -501 3700 0
-3700 3695 3694 0
-3700 3695 501 0
-3696 3701 0
-3695 -501 3701 0
-3701 3696 3695 0
-3701 3696 501 0
-3697 3702 0
-3696 -501 3702 0
-3702 3697 3696 0
-3702 3697 501 0
-3698 3703 0
-3697 -501 3703 0
-3703 3698 3697 0
-3703 3698 501 0
-3699 3704 0
-502 3704 0
-3704 3699 502 0
-3700 3705 0
-3699 -502 3705 0
-3705 3700 3699 0
-3705 3700 502 0
-3701 3706 0
-3700 -502 3706 0
-3706 3701 3700 0
-3706 3701 502 0
-3702 3707 0
-3701 -502 3707 0
-3707 3702 3701 0
-3707 3702 502 0
-3703 3708 0
-3702 -502 3708 0
-3708 3703 3702 0
-3708 3703 502 0
-3704 3709 0
-503 3709 0
-3709 3704 503 0
-3705 3710 0
-3704 -503 3710 0
-3710 3705 3704 0
-3710 3705 503 0
-3706 3711 0
-3705 -503 3711 0
-3711 3706 3705 0
-3711 3706 503 0
-3707 3712 0
-3706 -503 3712 0
-3712 3707 3706 0
-3712 3707 503 0
-3708 3713 0
-3707 -503 3713 0
-3713 3708 3707 0
-3713 3708 503 0
-3709 3714 0
-504 3714 0
-3714 3709 504 0
-3710 3715 0
-3709 -504 3715 0
-3715 3710 3709 0
-3715 3710 504 0
-3711 3716 0
-3710 -504 3716 0
-3716 3711 3710 0
-3716 3711 504 0
-3712 3717 0
-3711 -504 3717 0
-3717 3712 3711 0
-3717 3712 504 0
-3713 3718 0
-3712 -504 3718 0
-3718 3713 3712 0
-3718 3713 504 0
-3714 3719 0
-505 3719 0
-3719 3714 505 0
-3715 3720 0
-3714 -505 3720 0
-3720 3715 3714 0
-3720 3715 505 0
-3716 3721 0
-3715 -505 3721 0
-3721 3716 3715 0
-3721 3716 505 0
-3717 3722 0
-3716 -505 3722 0
-3722 3717 3716 0
-3722 3717 505 0
-3718 3723 0
-3717 -505 3723 0
-3723 3718 3717 0
-3723 3718 505 0
-3719 3724 0
-506 3724 0
-3724 3719 506 0
-3720 3725 0
-3719 -506 3725 0
-3725 3720 3719 0
-3725 3720 506 0
-3721 3726 0
-3720 -506 3726 0
-3726 3721 3720 0
-3726 3721 506 0
-3722 3727 0
-3721 -506 3727 0
-3727 3722 3721 0
-3727 3722 506 0
-3723 3728 0
-3722 -506 3728 0
-3728 3723 3722 0
-3728 3723 506 0
-3724 3729 0
-507 3729 0
-3729 3724 507 0
-3725 3730 0
-3724 -507 3730 0
-3730 3725 3724 0
-3730 3725 507 0
-3726 3731 0
-3725 -507 3731 0
-3731 3726 3725 0
-3731 3726 507 0
-3727 3732 0
-3726 -507 3732 0
-3732 3727 3726 0
-3732 3727 507 0
-3728 3733 0
-3727 -507 3733 0
-3733 3728 3727 0
-3733 3728 507 0
-3729 3734 0
-508 3734 0
-3734 3729 508 0
-3730 3735 0
-3729 -508 3735 0
-3735 3730 3729 0
-3735 3730 508 0
-3731 3736 0
-3730 -508 3736 0
-3736 3731 3730 0
-3736 3731 508 0
-3732 3737 0
-3731 -508 3737 0
-3737 3732 3731 0
-3737 3732 508 0
-3733 3738 0
-3732 -508 3738 0
-3738 3733 3732 0
-3738 3733 508 0
-3734 3739 0
-509 3739 0
-3739 3734 509 0
-3735 3740 0
-3734 -509 3740 0
-3740 3735 3734 0
-3740 3735 509 0
-3736 3741 0
-3735 -509 3741 0
-3741 3736 3735 0
-3741 3736 509 0
-3737 3742 0
-3736 -509 3742 0
-3742 3737 3736 0
-3742 3737 509 0
-3738 3743 0
-3737 -509 3743 0
-3743 3738 3737 0
-3743 3738 509 0
-3739 3744 0
-510 3744 0
-3744 3739 510 0
-3740 3745 0
-3739 -510 3745 0
-3745 3740 3739 0
-3745 3740 510 0
-3741 3746 0
-3740 -510 3746 0
-3746 3741 3740 0
-3746 3741 510 0
-3742 3747 0
-3741 -510 3747 0
-3747 3742 3741 0
-3747 3742 510 0
-3743 3748 0
-3742 -510 3748 0
-3748 3743 3742 0
-3748 3743 510 0
-3744 3749 0
-511 3749 0
-3749 3744 511 0
-3745 3750 0
-3744 -511 3750 0
-3750 3745 3744 0
-3750 3745 511 0
-3746 3751 0
-3745 -511 3751 0
-3751 3746 3745 0
-3751 3746 511 0
-3747 3752 0
-3746 -511 3752 0
-3752 3747 3746 0
-3752 3747 511 0
-3748 3753 0
-3747 -511 3753 0
-3753 3748 3747 0
-3753 3748 511 0
-3749 3754 0
-512 3754 0
-3754 3749 512 0
-3750 3755 0
-3749 -512 3755 0
-3755 3750 3749 0
-3755 3750 512 0
-3751 3756 0
-3750 -512 3756 0
-3756 3751 3750 0
-3756 3751 512 0
-3752 3757 0
-3751 -512 3757 0
-3757 3752 3751 0
-3757 3752 512 0
-3753 3758 0
-3752 -512 3758 0
-3758 3753 3752 0
-3758 3753 512 0
-3754 3759 0
-513 3759 0
-3759 3754 513 0
-3755 3760 0
-3754 -513 3760 0
-3760 3755 3754 0
-3760 3755 513 0
-3756 3761 0
-3755 -513 3761 0
-3761 3756 3755 0
-3761 3756 513 0
-3757 3762 0
-3756 -513 3762 0
-3762 3757 3756 0
-3762 3757 513 0
-3758 3763 0
-3757 -513 3763 0
-3763 3758 3757 0
-3763 3758 513 0
-3759 3764 0
-514 3764 0
-3764 3759 514 0
-3760 3765 0
-3759 -514 3765 0
-3765 3760 3759 0
-3765 3760 514 0
-3761 3766 0
-3760 -514 3766 0
-3766 3761 3760 0
-3766 3761 514 0
-3762 3767 0
-3761 -514 3767 0
-3767 3762 3761 0
-3767 3762 514 0
-3763 3768 0
-3762 -514 3768 0
-3768 3763 3762 0
-3768 3763 514 0
-3764 3769 0
-515 3769 0
-3769 3764 515 0
-3765 3770 0
-3764 -515 3770 0
-3770 3765 3764 0
-3770 3765 515 0
-3766 3771 0
-3765 -515 3771 0
-3771 3766 3765 0
-3771 3766 515 0
-3767 3772 0
-3766 -515 3772 0
-3772 3767 3766 0
-3772 3767 515 0
-3768 3773 0
-3767 -515 3773 0
-3773 3768 3767 0
-3773 3768 515 0
-3769 3774 0
-516 3774 0
-3774 3769 516 0
-3770 3775 0
-3769 -516 3775 0
-3775 3770 3769 0
-3775 3770 516 0
-3771 3776 0
-3770 -516 3776 0
-3776 3771 3770 0
-3776 3771 516 0
-3772 3777 0
-3771 -516 3777 0
-3777 3772 3771 0
-3777 3772 516 0
-3773 3778 0
-3772 -516 3778 0
-3778 3773 3772 0
-3778 3773 516 0
-3774 3779 0
-517 3779 0
-3779 3774 517 0
-3775 3780 0
-3774 -517 3780 0
-3780 3775 3774 0
-3780 3775 517 0
-3776 3781 0
-3775 -517 3781 0
-3781 3776 3775 0
-3781 3776 517 0
-3777 3782 0
-3776 -517 3782 0
-3782 3777 3776 0
-3782 3777 517 0
-3778 3783 0
-3777 -517 3783 0
-3783 3778 3777 0
-3783 3778 517 0
-3779 3784 0
-518 3784 0
-3784 3779 518 0
-3780 3785 0
-3779 -518 3785 0
-3785 3780 3779 0
-3785 3780 518 0
-3781 3786 0
-3780 -518 3786 0
-3786 3781 3780 0
-3786 3781 518 0
-3782 3787 0
-3781 -518 3787 0
-3787 3782 3781 0
-3787 3782 518 0
-3783 3788 0
-3782 -518 3788 0
-3788 3783 3782 0
-3788 3783 518 0
-3784 3789 0
-519 3789 0
-3789 3784 519 0
-3785 3790 0
-3784 -519 3790 0
-3790 3785 3784 0
-3790 3785 519 0
-3786 3791 0
-3785 -519 3791 0
-3791 3786 3785 0
-3791 3786 519 0
-3787 3792 0
-3786 -519 3792 0
-3792 3787 3786 0
-3792 3787 519 0
-3788 3793 0
-3787 -519 3793 0
-3793 3788 3787 0
-3793 3788 519 0
-3789 3794 0
-520 3794 0
-3794 3789 520 0
-3790 3795 0
-3789 -520 3795 0
-3795 3790 3789 0
-3795 3790 520 0
-3791 3796 0
-3790 -520 3796 0
-3796 3791 3790 0
-3796 3791 520 0
-3792 3797 0
-3791 -520 3797 0
-3797 3792 3791 0
-3797 3792 520 0
-3793 3798 0
-3792 -520 3798 0
-3798 3793 3792 0
-3798 3793 520 0
-3794 3799 0
-521 3799 0
-3799 3794 521 0
-3795 3800 0
-3794 -521 3800 0
-3800 3795 3794 0
-3800 3795 521 0
-3796 3801 0
-3795 -521 3801 0
-3801 3796 3795 0
-3801 3796 521 0
-3797 3802 0
-3796 -521 3802 0
-3802 3797 3796 0
-3802 3797 521 0
-3798 3803 0
-3797 -521 3803 0
-3803 3798 3797 0
-3803 3798 521 0
-3799 3804 0
-522 3804 0
-3804 3799 522 0
-3800 3805 0
-3799 -522 3805 0
-3805 3800 3799 0
-3805 3800 522 0
-3801 3806 0
-3800 -522 3806 0
-3806 3801 3800 0
-3806 3801 522 0
-3802 3807 0
-3801 -522 3807 0
-3807 3802 3801 0
-3807 3802 522 0
-3803 3808 0
-3802 -522 3808 0
-3808 3803 3802 0
-3808 3803 522 0
-3804 3809 0
-523 3809 0
-3809 3804 523 0
-3805 3810 0
-3804 -523 3810 0
-3810 3805 3804 0
-3810 3805 523 0
-3806 3811 0
-3805 -523 3811 0
-3811 3806 3805 0
-3811 3806 523 0
-3807 3812 0
-3806 -523 3812 0
-3812 3807 3806 0
-3812 3807 523 0
-3808 3813 0
-3807 -523 3813 0
-3813 3808 3807 0
-3813 3808 523 0
-3809 3814 0
-524 3814 0
-3814 3809 524 0
-3810 3815 0
-3809 -524 3815 0
-3815 3810 3809 0
-3815 3810 524 0
-3811 3816 0
-3810 -524 3816 0
-3816 3811 3810 0
-3816 3811 524 0
-3812 3817 0
-3811 -524 3817 0
-3817 3812 3811 0
-3817 3812 524 0
-3813 3818 0
-3812 -524 3818 0
-3818 3813 3812 0
-3818 3813 524 0
-3814 3819 0
-525 3819 0
-3819 3814 525 0
-3815 3820 0
-3814 -525 3820 0
-3820 3815 3814 0
-3820 3815 525 0
-3816 3821 0
-3815 -525 3821 0
-3821 3816 3815 0
-3821 3816 525 0
-3817 3822 0
-3816 -525 3822 0
-3822 3817 3816 0
-3822 3817 525 0
-3818 3823 0
-3817 -525 3823 0
-3823 3818 3817 0
-3823 3818 525 0
-3819 3824 0
-526 3824 0
-3824 3819 526 0
-3820 3825 0
-3819 -526 3825 0
-3825 3820 3819 0
-3825 3820 526 0
-3821 3826 0
-3820 -526 3826 0
-3826 3821 3820 0
-3826 3821 526 0
-3822 3827 0
-3821 -526 3827 0
-3827 3822 3821 0
-3827 3822 526 0
-3823 3828 0
-3822 -526 3828 0
-3828 3823 3822 0
-3828 3823 526 0
-3824 3829 0
-527 3829 0
-3829 3824 527 0
-3825 3830 0
-3824 -527 3830 0
-3830 3825 3824 0
-3830 3825 527 0
-3826 3831 0
-3825 -527 3831 0
-3831 3826 3825 0
-3831 3826 527 0
-3827 3832 0
-3826 -527 3832 0
-3832 3827 3826 0
-3832 3827 527 0
-3828 3833 0
-3827 -527 3833 0
-3833 3828 3827 0
-3833 3828 527 0
-3829 3834 0
-528 3834 0
-3834 3829 528 0
-3830 3835 0
-3829 -528 3835 0
-3835 3830 3829 0
-3835 3830 528 0
-3831 3836 0
-3830 -528 3836 0
-3836 3831 3830 0
-3836 3831 528 0
-3832 3837 0
-3831 -528 3837 0
-3837 3832 3831 0
-3837 3832 528 0
-3833 3838 0
-3832 -528 3838 0
-3838 3833 3832 0
-3838 3833 528 0
-3834 3839 0
-529 3839 0
-3839 3834 529 0
-3835 3840 0
-3834 -529 3840 0
-3840 3835 3834 0
-3840 3835 529 0
-3836 3841 0
-3835 -529 3841 0
-3841 3836 3835 0
-3841 3836 529 0
-3837 3842 0
-3836 -529 3842 0
-3842 3837 3836 0
-3842 3837 529 0
-3838 3843 0
-3837 -529 3843 0
-3843 3838 3837 0
-3843 3838 529 0
-3839 3844 0
-530 3844 0
-3844 3839 530 0
-3840 3845 0
-3839 -530 3845 0
-3845 3840 3839 0
-3845 3840 530 0
-3841 3846 0
-3840 -530 3846 0
-3846 3841 3840 0
-3846 3841 530 0
-3842 3847 0
-3841 -530 3847 0
-3847 3842 3841 0
-3847 3842 530 0
-3843 3848 0
-3842 -530 3848 0
-3848 3843 3842 0
-3848 3843 530 0
-3844 3849 0
-531 3849 0
-3849 3844 531 0
-3845 3850 0
-3844 -531 3850 0
-3850 3845 3844 0
-3850 3845 531 0
-3846 3851 0
-3845 -531 3851 0
-3851 3846 3845 0
-3851 3846 531 0
-3847 3852 0
-3846 -531 3852 0
-3852 3847 3846 0
-3852 3847 531 0
-3848 3853 0
-3847 -531 3853 0
-3853 3848 3847 0
-3853 3848 531 0
-3849 3854 0
-532 3854 0
-3854 3849 532 0
-3850 3855 0
-3849 -532 3855 0
-3855 3850 3849 0
-3855 3850 532 0
-3851 3856 0
-3850 -532 3856 0
-3856 3851 3850 0
-3856 3851 532 0
-3852 3857 0
-3851 -532 3857 0
-3857 3852 3851 0
-3857 3852 532 0
-3853 3858 0
-3852 -532 3858 0
-3858 3853 3852 0
-3858 3853 532 0
-3854 3859 0
-533 3859 0
-3859 3854 533 0
-3855 3860 0
-3854 -533 3860 0
-3860 3855 3854 0
-3860 3855 533 0
-3856 3861 0
-3855 -533 3861 0
-3861 3856 3855 0
-3861 3856 533 0
-3857 3862 0
-3856 -533 3862 0
-3862 3857 3856 0
-3862 3857 533 0
-3858 3863 0
-3857 -533 3863 0
-3863 3858 3857 0
-3863 3858 533 0
-3859 3864 0
-534 3864 0
-3864 3859 534 0
-3860 3865 0
-3859 -534 3865 0
-3865 3860 3859 0
-3865 3860 534 0
-3861 3866 0
-3860 -534 3866 0
-3866 3861 3860 0
-3866 3861 534 0
-3862 3867 0
-3861 -534 3867 0
-3867 3862 3861 0
-3867 3862 534 0
-3863 3868 0
-3862 -534 3868 0
-3868 3863 3862 0
-3868 3863 534 0
-3864 3869 0
-535 3869 0
-3869 3864 535 0
-3865 3870 0
-3864 -535 3870 0
-3870 3865 3864 0
-3870 3865 535 0
-3866 3871 0
-3865 -535 3871 0
-3871 3866 3865 0
-3871 3866 535 0
-3867 3872 0
-3866 -535 3872 0
-3872 3867 3866 0
-3872 3867 535 0
-3868 3873 0
-3867 -535 3873 0
-3873 3868 3867 0
-3873 3868 535 0
-3869 3874 0
-536 3874 0
-3874 3869 536 0
-3870 3875 0
-3869 -536 3875 0
-3875 3870 3869 0
-3875 3870 536 0
-3871 3876 0
-3870 -536 3876 0
-3876 3871 3870 0
-3876 3871 536 0
-3872 3877 0
-3871 -536 3877 0
-3877 3872 3871 0
-3877 3872 536 0
-3873 3878 0
-3872 -536 3878 0
-3878 3873 3872 0
-3878 3873 536 0
-3874 3879 0
-537 3879 0
-3879 3874 537 0
-3875 3880 0
-3874 -537 3880 0
-3880 3875 3874 0
-3880 3875 537 0
-3876 3881 0
-3875 -537 3881 0
-3881 3876 3875 0
-3881 3876 537 0
-3877 3882 0
-3876 -537 3882 0
-3882 3877 3876 0
-3882 3877 537 0
-3878 3883 0
-3877 -537 3883 0
-3883 3878 3877 0
-3883 3878 537 0
-3879 3884 0
-538 3884 0
-3884 3879 538 0
-3880 3885 0
-3879 -538 3885 0
-3885 3880 3879 0
-3885 3880 538 0
-3881 3886 0
-3880 -538 3886 0
-3886 3881 3880 0
-3886 3881 538 0
-3882 3887 0
-3881 -538 3887 0
-3887 3882 3881 0
-3887 3882 538 0
-3883 3888 0
-3882 -538 3888 0
-3888 3883 3882 0
-3888 3883 538 0
-3884 3889 0
-539 3889 0
-3889 3884 539 0
-3885 3890 0
-3884 -539 3890 0
-3890 3885 3884 0
-3890 3885 539 0
-3886 3891 0
-3885 -539 3891 0
-3891 3886 3885 0
-3891 3886 539 0
-3887 3892 0
-3886 -539 3892 0
-3892 3887 3886 0
-3892 3887 539 0
-3888 3893 0
-3887 -539 3893 0
-3893 3888 3887 0
-3893 3888 539 0
-3889 3894 0
-540 3894 0
-3894 3889 540 0
-3890 3895 0
-3889 -540 3895 0
-3895 3890 3889 0
-3895 3890 540 0
-3891 3896 0
-3890 -540 3896 0
-3896 3891 3890 0
-3896 3891 540 0
-3892 3897 0
-3891 -540 3897 0
-3897 3892 3891 0
-3897 3892 540 0
-3893 3898 0
-3892 -540 3898 0
-3898 3893 3892 0
-3898 3893 540 0
-3894 3899 0
-541 3899 0
-3899 3894 541 0
-3895 3900 0
-3894 -541 3900 0
-3900 3895 3894 0
-3900 3895 541 0
-3896 3901 0
-3895 -541 3901 0
-3901 3896 3895 0
-3901 3896 541 0
-3897 3902 0
-3896 -541 3902 0
-3902 3897 3896 0
-3902 3897 541 0
-3898 3903 0
-3897 -541 3903 0
-3903 3898 3897 0
-3903 3898 541 0
-3899 3904 0
-542 3904 0
-3904 3899 542 0
-3900 3905 0
-3899 -542 3905 0
-3905 3900 3899 0
-3905 3900 542 0
-3901 3906 0
-3900 -542 3906 0
-3906 3901 3900 0
-3906 3901 542 0
-3902 3907 0
-3901 -542 3907 0
-3907 3902 3901 0
-3907 3902 542 0
-3903 3908 0
-3902 -542 3908 0
-3908 3903 3902 0
-3908 3903 542 0
-3904 3909 0
-543 3909 0
-3909 3904 543 0
-3905 3910 0
-3904 -543 3910 0
-3910 3905 3904 0
-3910 3905 543 0
-3906 3911 0
-3905 -543 3911 0
-3911 3906 3905 0
-3911 3906 543 0
-3907 3912 0
-3906 -543 3912 0
-3912 3907 3906 0
-3912 3907 543 0
-3908 3913 0
-3907 -543 3913 0
-3913 3908 3907 0
-3913 3908 543 0
-3909 3914 0
-544 3914 0
-3914 3909 544 0
-3910 3915 0
-3909 -544 3915 0
-3915 3910 3909 0
-3915 3910 544 0
-3911 3916 0
-3910 -544 3916 0
-3916 3911 3910 0
-3916 3911 544 0
-3912 3917 0
-3911 -544 3917 0
-3917 3912 3911 0
-3917 3912 544 0
-3913 3918 0
-3912 -544 3918 0
-3918 3913 3912 0
-3918 3913 544 0
-3914 3919 0
-545 3919 0
-3919 3914 545 0
-3915 3920 0
-3914 -545 3920 0
-3920 3915 3914 0
-3920 3915 545 0
-3916 3921 0
-3915 -545 3921 0
-3921 3916 3915 0
-3921 3916 545 0
-3917 3922 0
-3916 -545 3922 0
-3922 3917 3916 0
-3922 3917 545 0
-3918 3923 0
-3917 -545 3923 0
-3923 3918 3917 0
-3923 3918 545 0
-3919 3924 0
-546 3924 0
-3924 3919 546 0
-3920 3925 0
-3919 -546 3925 0
-3925 3920 3919 0
-3925 3920 546 0
-3921 3926 0
-3920 -546 3926 0
-3926 3921 3920 0
-3926 3921 546 0
-3922 3927 0
-3921 -546 3927 0
-3927 3922 3921 0
-3927 3922 546 0
-3923 3928 0
-3922 -546 3928 0
-3928 3923 3922 0
-3928 3923 546 0
-3924 3929 0
-547 3929 0
-3929 3924 547 0
-3925 3930 0
-3924 -547 3930 0
-3930 3925 3924 0
-3930 3925 547 0
-3926 3931 0
-3925 -547 3931 0
-3931 3926 3925 0
-3931 3926 547 0
-3927 3932 0
-3926 -547 3932 0
-3932 3927 3926 0
-3932 3927 547 0
-3928 3933 0
-3927 -547 3933 0
-3933 3928 3927 0
-3933 3928 547 0
-3929 3934 0
-548 3934 0
-3934 3929 548 0
-3930 3935 0
-3929 -548 3935 0
-3935 3930 3929 0
-3935 3930 548 0
-3931 3936 0
-3930 -548 3936 0
-3936 3931 3930 0
-3936 3931 548 0
-3932 3937 0
-3931 -548 3937 0
-3937 3932 3931 0
-3937 3932 548 0
-3933 3938 0
-3932 -548 3938 0
-3938 3933 3932 0
-3938 3933 548 0
-3934 3939 0
-549 3939 0
-3939 3934 549 0
-3935 3940 0
-3934 -549 3940 0
-3940 3935 3934 0
-3940 3935 549 0
-3936 3941 0
-3935 -549 3941 0
-3941 3936 3935 0
-3941 3936 549 0
-3937 3942 0
-3936 -549 3942 0
-3942 3937 3936 0
-3942 3937 549 0
-3938 3943 0
-3937 -549 3943 0
-3943 3938 3937 0
-3943 3938 549 0
-3939 3944 0
-550 3944 0
-3944 3939 550 0
-3940 3945 0
-3939 -550 3945 0
-3945 3940 3939 0
-3945 3940 550 0
-3941 3946 0
-3940 -550 3946 0
-3946 3941 3940 0
-3946 3941 550 0
-3942 3947 0
-3941 -550 3947 0
-3947 3942 3941 0
-3947 3942 550 0
-3943 3948 0
-3942 -550 3948 0
-3948 3943 3942 0
-3948 3943 550 0
-3944 3949 0
-551 3949 0
-3949 3944 551 0
-3945 3950 0
-3944 -551 3950 0
-3950 3945 3944 0
-3950 3945 551 0
-3946 3951 0
-3945 -551 3951 0
-3951 3946 3945 0
-3951 3946 551 0
-3947 3952 0
-3946 -551 3952 0
-3952 3947 3946 0
-3952 3947 551 0
-3948 3953 0
-3947 -551 3953 0
-3953 3948 3947 0
-3953 3948 551 0
-3949 3954 0
-552 3954 0
-3954 3949 552 0
-3950 3955 0
-3949 -552 3955 0
-3955 3950 3949 0
-3955 3950 552 0
-3951 3956 0
-3950 -552 3956 0
-3956 3951 3950 0
-3956 3951 552 0
-3952 3957 0
-3951 -552 3957 0
-3957 3952 3951 0
-3957 3952 552 0
-3953 3958 0
-3952 -552 3958 0
-3958 3953 3952 0
-3958 3953 552 0
-3954 3959 0
-553 3959 0
-3959 3954 553 0
-3955 3960 0
-3954 -553 3960 0
-3960 3955 3954 0
-3960 3955 553 0
-3956 3961 0
-3955 -553 3961 0
-3961 3956 3955 0
-3961 3956 553 0
-3957 3962 0
-3956 -553 3962 0
-3962 3957 3956 0
-3962 3957 553 0
-3958 3963 0
-3957 -553 3963 0
-3963 3958 3957 0
-3963 3958 553 0
-3959 3964 0
-554 3964 0
-3964 3959 554 0
-3960 3965 0
-3959 -554 3965 0
-3965 3960 3959 0
-3965 3960 554 0
-3961 3966 0
-3960 -554 3966 0
-3966 3961 3960 0
-3966 3961 554 0
-3962 3967 0
-3961 -554 3967 0
-3967 3962 3961 0
-3967 3962 554 0
-3963 3968 0
-3962 -554 3968 0
-3968 3963 3962 0
-3968 3963 554 0
-3964 3969 0
-555 3969 0
-3969 3964 555 0
-3965 3970 0
-3964 -555 3970 0
-3970 3965 3964 0
-3970 3965 555 0
-3966 3971 0
-3965 -555 3971 0
-3971 3966 3965 0
-3971 3966 555 0
-3967 3972 0
-3966 -555 3972 0
-3972 3967 3966 0
-3972 3967 555 0
-3968 3973 0
-3967 -555 3973 0
-3973 3968 3967 0
-3973 3968 555 0
-3969 3974 0
-556 3974 0
-3974 3969 556 0
-3970 3975 0
-3969 -556 3975 0
-3975 3970 3969 0
-3975 3970 556 0
-3971 3976 0
-3970 -556 3976 0
-3976 3971 3970 0
-3976 3971 556 0
-3972 3977 0
-3971 -556 3977 0
-3977 3972 3971 0
-3977 3972 556 0
-3973 3978 0
-3972 -556 3978 0
-3978 3973 3972 0
-3978 3973 556 0
-3974 3979 0
-557 3979 0
-3979 3974 557 0
-3975 3980 0
-3974 -557 3980 0
-3980 3975 3974 0
-3980 3975 557 0
-3976 3981 0
-3975 -557 3981 0
-3981 3976 3975 0
-3981 3976 557 0
-3977 3982 0
-3976 -557 3982 0
-3982 3977 3976 0
-3982 3977 557 0
-3978 3983 0
-3977 -557 3983 0
-3983 3978 3977 0
-3983 3978 557 0
-3979 3984 0
-558 3984 0
-3984 3979 558 0
-3980 3985 0
-3979 -558 3985 0
-3985 3980 3979 0
-3985 3980 558 0
-3981 3986 0
-3980 -558 3986 0
-3986 3981 3980 0
-3986 3981 558 0
-3982 3987 0
-3981 -558 3987 0
-3987 3982 3981 0
-3987 3982 558 0
-3983 3988 0
-3982 -558 3988 0
-3988 3983 3982 0
-3988 3983 558 0
-3984 3989 0
-559 3989 0
-3989 3984 559 0
-3985 3990 0
-3984 -559 3990 0
-3990 3985 3984 0
-3990 3985 559 0
-3986 3991 0
-3985 -559 3991 0
-3991 3986 3985 0
-3991 3986 559 0
-3987 3992 0
-3986 -559 3992 0
-3992 3987 3986 0
-3992 3987 559 0
-3988 3993 0
-3987 -559 3993 0
-3993 3988 3987 0
-3993 3988 559 0
-3989 3994 0
-560 3994 0
-3994 3989 560 0
-3990 3995 0
-3989 -560 3995 0
-3995 3990 3989 0
-3995 3990 560 0
-3991 3996 0
-3990 -560 3996 0
-3996 3991 3990 0
-3996 3991 560 0
-3992 3997 0
-3991 -560 3997 0
-3997 3992 3991 0
-3997 3992 560 0
-3993 3998 0
-3992 -560 3998 0
-3998 3993 3992 0
-3998 3993 560 0
-3994 3999 0
-561 3999 0
-3999 3994 561 0
-3995 4000 0
-3994 -561 4000 0
-4000 3995 3994 0
-4000 3995 561 0
-3996 4001 0
-3995 -561 4001 0
-4001 3996 3995 0
-4001 3996 561 0
-3997 4002 0
-3996 -561 4002 0
-4002 3997 3996 0
-4002 3997 561 0
-3998 4003 0
-3997 -561 4003 0
-4003 3998 3997 0
-4003 3998 561 0
-3999 4004 0
-562 4004 0
-4004 3999 562 0
-4000 4005 0
-3999 -562 4005 0
-4005 4000 3999 0
-4005 4000 562 0
-4001 4006 0
-4000 -562 4006 0
-4006 4001 4000 0
-4006 4001 562 0
-4002 4007 0
-4001 -562 4007 0
-4007 4002 4001 0
-4007 4002 562 0
-4003 4008 0
-4002 -562 4008 0
-4008 4003 4002 0
-4008 4003 562 0
-4004 4009 0
-563 4009 0
-4009 4004 563 0
-4005 4010 0
-4004 -563 4010 0
-4010 4005 4004 0
-4010 4005 563 0
-4006 4011 0
-4005 -563 4011 0
-4011 4006 4005 0
-4011 4006 563 0
-4007 4012 0
-4006 -563 4012 0
-4012 4007 4006 0
-4012 4007 563 0
-4008 4013 0
-4007 -563 4013 0
-4013 4008 4007 0
-4013 4008 563 0
-4009 4014 0
-564 4014 0
-4014 4009 564 0
-4010 4015 0
-4009 -564 4015 0
-4015 4010 4009 0
-4015 4010 564 0
-4011 4016 0
-4010 -564 4016 0
-4016 4011 4010 0
-4016 4011 564 0
-4012 4017 0
-4011 -564 4017 0
-4017 4012 4011 0
-4017 4012 564 0
-4013 4018 0
-4012 -564 4018 0
-4018 4013 4012 0
-4018 4013 564 0
-4014 4019 0
-565 4019 0
-4019 4014 565 0
-4015 4020 0
-4014 -565 4020 0
-4020 4015 4014 0
-4020 4015 565 0
-4016 4021 0
-4015 -565 4021 0
-4021 4016 4015 0
-4021 4016 565 0
-4017 4022 0
-4016 -565 4022 0
-4022 4017 4016 0
-4022 4017 565 0
-4018 4023 0
-4017 -565 4023 0
-4023 4018 4017 0
-4023 4018 565 0
-4019 4024 0
-566 4024 0
-4024 4019 566 0
-4020 4025 0
-4019 -566 4025 0
-4025 4020 4019 0
-4025 4020 566 0
-4021 4026 0
-4020 -566 4026 0
-4026 4021 4020 0
-4026 4021 566 0
-4022 4027 0
-4021 -566 4027 0
-4027 4022 4021 0
-4027 4022 566 0
-4023 4028 0
-4022 -566 4028 0
-4028 4023 4022 0
-4028 4023 566 0
-4024 4029 0
-567 4029 0
-4029 4024 567 0
-4025 4030 0
-4024 -567 4030 0
-4030 4025 4024 0
-4030 4025 567 0
-4026 4031 0
-4025 -567 4031 0
-4031 4026 4025 0
-4031 4026 567 0
-4027 4032 0
-4026 -567 4032 0
-4032 4027 4026 0
-4032 4027 567 0
-4028 4033 0
-4027 -567 4033 0
-4033 4028 4027 0
-4033 4028 567 0
-4029 4034 0
-568 4034 0
-4034 4029 568 0
-4030 4035 0
-4029 -568 4035 0
-4035 4030 4029 0
-4035 4030 568 0
-4031 4036 0
-4030 -568 4036 0
-4036 4031 4030 0
-4036 4031 568 0
-4032 4037 0
-4031 -568 4037 0
-4037 4032 4031 0
-4037 4032 568 0
-4033 4038 0
-4032 -568 4038 0
-4038 4033 4032 0
-4038 4033 568 0
-4034 4039 0
-569 4039 0
-4039 4034 569 0
-4035 4040 0
-4034 -569 4040 0
-4040 4035 4034 0
-4040 4035 569 0
-4036 4041 0
-4035 -569 4041 0
-4041 4036 4035 0
-4041 4036 569 0
-4037 4042 0
-4036 -569 4042 0
-4042 4037 4036 0
-4042 4037 569 0
-4038 4043 0
-4037 -569 4043 0
-4043 4038 4037 0
-4043 4038 569 0
-4039 4044 0
-570 4044 0
-4044 4039 570 0
-4040 4045 0
-4039 -570 4045 0
-4045 4040 4039 0
-4045 4040 570 0
-4041 4046 0
-4040 -570 4046 0
-4046 4041 4040 0
-4046 4041 570 0
-4042 4047 0
-4041 -570 4047 0
-4047 4042 4041 0
-4047 4042 570 0
-4043 4048 0
-4042 -570 4048 0
-4048 4043 4042 0
-4048 4043 570 0
-4044 4049 0
-571 4049 0
-4049 4044 571 0
-4045 4050 0
-4044 -571 4050 0
-4050 4045 4044 0
-4050 4045 571 0
-4046 4051 0
-4045 -571 4051 0
-4051 4046 4045 0
-4051 4046 571 0
-4047 4052 0
-4046 -571 4052 0
-4052 4047 4046 0
-4052 4047 571 0
-4048 4053 0
-4047 -571 4053 0
-4053 4048 4047 0
-4053 4048 571 0
-4049 4054 0
-572 4054 0
-4054 4049 572 0
-4050 4055 0
-4049 -572 4055 0
-4055 4050 4049 0
-4055 4050 572 0
-4051 4056 0
-4050 -572 4056 0
-4056 4051 4050 0
-4056 4051 572 0
-4052 4057 0
-4051 -572 4057 0
-4057 4052 4051 0
-4057 4052 572 0
-4053 4058 0
-4052 -572 4058 0
-4058 4053 4052 0
-4058 4053 572 0
-4054 4059 0
-573 4059 0
-4059 4054 573 0
-4055 4060 0
-4054 -573 4060 0
-4060 4055 4054 0
-4060 4055 573 0
-4056 4061 0
-4055 -573 4061 0
-4061 4056 4055 0
-4061 4056 573 0
-4057 4062 0
-4056 -573 4062 0
-4062 4057 4056 0
-4062 4057 573 0
-4058 4063 0
-4057 -573 4063 0
-4063 4058 4057 0
-4063 4058 573 0
-4059 4064 0
-574 4064 0
-4064 4059 574 0
-4060 4065 0
-4059 -574 4065 0
-4065 4060 4059 0
-4065 4060 574 0
-4061 4066 0
-4060 -574 4066 0
-4066 4061 4060 0
-4066 4061 574 0
-4062 4067 0
-4061 -574 4067 0
-4067 4062 4061 0
-4067 4062 574 0
-4063 4068 0
-4062 -574 4068 0
-4068 4063 4062 0
-4068 4063 574 0
-4064 4069 0
-575 4069 0
-4069 4064 575 0
-4065 4070 0
-4064 -575 4070 0
-4070 4065 4064 0
-4070 4065 575 0
-4066 4071 0
-4065 -575 4071 0
-4071 4066 4065 0
-4071 4066 575 0
-4067 4072 0
-4066 -575 4072 0
-4072 4067 4066 0
-4072 4067 575 0
-4068 4073 0
-4067 -575 4073 0
-4073 4068 4067 0
-4073 4068 575 0
-4069 4074 0
-576 4074 0
-4074 4069 576 0
-4070 4075 0
-4069 -576 4075 0
-4075 4070 4069 0
-4075 4070 576 0
-4071 4076 0
-4070 -576 4076 0
-4076 4071 4070 0
-4076 4071 576 0
-4072 4077 0
-4071 -576 4077 0
-4077 4072 4071 0
-4077 4072 576 0
-4073 4078 0
-4072 -576 4078 0
-4078 4073 4072 0
-4078 4073 576 0
-4074 4079 0
-577 4079 0
-4079 4074 577 0
-4075 4080 0
-4074 -577 4080 0
-4080 4075 4074 0
-4080 4075 577 0
-4076 4081 0
-4075 -577 4081 0
-4081 4076 4075 0
-4081 4076 577 0
-4077 4082 0
-4076 -577 4082 0
-4082 4077 4076 0
-4082 4077 577 0
-4078 4083 0
-4077 -577 4083 0
-4083 4078 4077 0
-4083 4078 577 0
-4079 4084 0
-578 4084 0
-4084 4079 578 0
-4080 4085 0
-4079 -578 4085 0
-4085 4080 4079 0
-4085 4080 578 0
-4081 4086 0
-4080 -578 4086 0
-4086 4081 4080 0
-4086 4081 578 0
-4082 4087 0
-4081 -578 4087 0
-4087 4082 4081 0
-4087 4082 578 0
-4083 4088 0
-4082 -578 4088 0
-4088 4083 4082 0
-4088 4083 578 0
-4084 4089 0
-579 4089 0
-4089 4084 579 0
-4085 4090 0
-4084 -579 4090 0
-4090 4085 4084 0
-4090 4085 579 0
-4086 4091 0
-4085 -579 4091 0
-4091 4086 4085 0
-4091 4086 579 0
-4087 4092 0
-4086 -579 4092 0
-4092 4087 4086 0
-4092 4087 579 0
-4088 4093 0
-4087 -579 4093 0
-4093 4088 4087 0
-4093 4088 579 0
-4089 4094 0
-580 4094 0
-4094 4089 580 0
-4090 4095 0
-4089 -580 4095 0
-4095 4090 4089 0
-4095 4090 580 0
-4091 4096 0
-4090 -580 4096 0
-4096 4091 4090 0
-4096 4091 580 0
-4092 4097 0
-4091 -580 4097 0
-4097 4092 4091 0
-4097 4092 580 0
-4093 4098 0
-4092 -580 4098 0
-4098 4093 4092 0
-4098 4093 580 0
-4094 4099 0
-581 4099 0
-4099 4094 581 0
-4095 4100 0
-4094 -581 4100 0
-4100 4095 4094 0
-4100 4095 581 0
-4096 4101 0
-4095 -581 4101 0
-4101 4096 4095 0
-4101 4096 581 0
-4097 4102 0
-4096 -581 4102 0
-4102 4097 4096 0
-4102 4097 581 0
-4098 4103 0
-4097 -581 4103 0
-4103 4098 4097 0
-4103 4098 581 0
-4099 4104 0
-582 4104 0
-4104 4099 582 0
-4100 4105 0
-4099 -582 4105 0
-4105 4100 4099 0
-4105 4100 582 0
-4101 4106 0
-4100 -582 4106 0
-4106 4101 4100 0
-4106 4101 582 0
-4102 4107 0
-4101 -582 4107 0
-4107 4102 4101 0
-4107 4102 582 0
-4103 4108 0
-4102 -582 4108 0
-4108 4103 4102 0
-4108 4103 582 0
-4104 4109 0
-583 4109 0
-4109 4104 583 0
-4105 4110 0
-4104 -583 4110 0
-4110 4105 4104 0
-4110 4105 583 0
-4106 4111 0
-4105 -583 4111 0
-4111 4106 4105 0
-4111 4106 583 0
-4107 4112 0
-4106 -583 4112 0
-4112 4107 4106 0
-4112 4107 583 0
-4108 4113 0
-4107 -583 4113 0
-4113 4108 4107 0
-4113 4108 583 0
-4109 4114 0
-584 4114 0
-4114 4109 584 0
-4110 4115 0
-4109 -584 4115 0
-4115 4110 4109 0
-4115 4110 584 0
-4111 4116 0
-4110 -584 4116 0
-4116 4111 4110 0
-4116 4111 584 0
-4112 4117 0
-4111 -584 4117 0
-4117 4112 4111 0
-4117 4112 584 0
-4113 4118 0
-4112 -584 4118 0
-4118 4113 4112 0
-4118 4113 584 0
-4114 4119 0
-585 4119 0
-4119 4114 585 0
-4115 4120 0
-4114 -585 4120 0
-4120 4115 4114 0
-4120 4115 585 0
-4116 4121 0
-4115 -585 4121 0
-4121 4116 4115 0
-4121 4116 585 0
-4117 4122 0
-4116 -585 4122 0
-4122 4117 4116 0
-4122 4117 585 0
-4118 4123 0
-4117 -585 4123 0
-4123 4118 4117 0
-4123 4118 585 0
-4119 4124 0
-586 4124 0
-4124 4119 586 0
-4120 4125 0
-4119 -586 4125 0
-4125 4120 4119 0
-4125 4120 586 0
-4121 4126 0
-4120 -586 4126 0
-4126 4121 4120 0
-4126 4121 586 0
-4122 4127 0
-4121 -586 4127 0
-4127 4122 4121 0
-4127 4122 586 0
-4123 4128 0
-4122 -586 4128 0
-4128 4123 4122 0
-4128 4123 586 0
-4124 4129 0
-587 4129 0
-4129 4124 587 0
-4125 4130 0
-4124 -587 4130 0
-4130 4125 4124 0
-4130 4125 587 0
-4126 4131 0
-4125 -587 4131 0
-4131 4126 4125 0
-4131 4126 587 0
-4127 4132 0
-4126 -587 4132 0
-4132 4127 4126 0
-4132 4127 587 0
-4128 4133 0
-4127 -587 4133 0
-4133 4128 4127 0
-4133 4128 587 0
-4129 4134 0
-588 4134 0
-4134 4129 588 0
-4130 4135 0
-4129 -588 4135 0
-4135 4130 4129 0
-4135 4130 588 0
-4131 4136 0
-4130 -588 4136 0
-4136 4131 4130 0
-4136 4131 588 0
-4132 4137 0
-4131 -588 4137 0
-4137 4132 4131 0
-4137 4132 588 0
-4133 4138 0
-4132 -588 4138 0
-4138 4133 4132 0
-4138 4133 588 0
-4134 4139 0
-589 4139 0
-4139 4134 589 0
-4135 4140 0
-4134 -589 4140 0
-4140 4135 4134 0
-4140 4135 589 0
-4136 4141 0
-4135 -589 4141 0
-4141 4136 4135 0
-4141 4136 589 0
-4137 4142 0
-4136 -589 4142 0
-4142 4137 4136 0
-4142 4137 589 0
-4138 4143 0
-4137 -589 4143 0
-4143 4138 4137 0
-4143 4138 589 0
-4139 4144 0
-590 4144 0
-4144 4139 590 0
-4140 4145 0
-4139 -590 4145 0
-4145 4140 4139 0
-4145 4140 590 0
-4141 4146 0
-4140 -590 4146 0
-4146 4141 4140 0
-4146 4141 590 0
-4142 4147 0
-4141 -590 4147 0
-4147 4142 4141 0
-4147 4142 590 0
-4143 4148 0
-4142 -590 4148 0
-4148 4143 4142 0
-4148 4143 590 0
-4144 4149 0
-591 4149 0
-4149 4144 591 0
-4145 4150 0
-4144 -591 4150 0
-4150 4145 4144 0
-4150 4145 591 0
-4146 4151 0
-4145 -591 4151 0
-4151 4146 4145 0
-4151 4146 591 0
-4147 4152 0
-4146 -591 4152 0
-4152 4147 4146 0
-4152 4147 591 0
-4148 4153 0
-4147 -591 4153 0
-4153 4148 4147 0
-4153 4148 591 0
-4149 4154 0
-592 4154 0
-4154 4149 592 0
-4150 4155 0
-4149 -592 4155 0
-4155 4150 4149 0
-4155 4150 592 0
-4151 4156 0
-4150 -592 4156 0
-4156 4151 4150 0
-4156 4151 592 0
-4152 4157 0
-4151 -592 4157 0
-4157 4152 4151 0
-4157 4152 592 0
-4153 4158 0
-4152 -592 4158 0
-4158 4153 4152 0
-4158 4153 592 0
-4154 4159 0
-593 4159 0
-4159 4154 593 0
-4155 4160 0
-4154 -593 4160 0
-4160 4155 4154 0
-4160 4155 593 0
-4156 4161 0
-4155 -593 4161 0
-4161 4156 4155 0
-4161 4156 593 0
-4157 4162 0
-4156 -593 4162 0
-4162 4157 4156 0
-4162 4157 593 0
-4158 4163 0
-4157 -593 4163 0
-4163 4158 4157 0
-4163 4158 593 0
-4159 4164 0
-594 4164 0
-4164 4159 594 0
-4160 4165 0
-4159 -594 4165 0
-4165 4160 4159 0
-4165 4160 594 0
-4161 4166 0
-4160 -594 4166 0
-4166 4161 4160 0
-4166 4161 594 0
-4162 4167 0
-4161 -594 4167 0
-4167 4162 4161 0
-4167 4162 594 0
-4163 4168 0
-4162 -594 4168 0
-4168 4163 4162 0
-4168 4163 594 0
-4164 4169 0
-595 4169 0
-4169 4164 595 0
-4165 4170 0
-4164 -595 4170 0
-4170 4165 4164 0
-4170 4165 595 0
-4166 4171 0
-4165 -595 4171 0
-4171 4166 4165 0
-4171 4166 595 0
-4167 4172 0
-4166 -595 4172 0
-4172 4167 4166 0
-4172 4167 595 0
-4168 4173 0
-4167 -595 4173 0
-4173 4168 4167 0
-4173 4168 595 0
-4169 4174 0
-596 4174 0
-4174 4169 596 0
-4170 4175 0
-4169 -596 4175 0
-4175 4170 4169 0
-4175 4170 596 0
-4171 4176 0
-4170 -596 4176 0
-4176 4171 4170 0
-4176 4171 596 0
-4172 4177 0
-4171 -596 4177 0
-4177 4172 4171 0
-4177 4172 596 0
-4173 4178 0
-4172 -596 4178 0
-4178 4173 4172 0
-4178 4173 596 0
-4174 4179 0
-597 4179 0
-4179 4174 597 0
-4175 4180 0
-4174 -597 4180 0
-4180 4175 4174 0
-4180 4175 597 0
-4176 4181 0
-4175 -597 4181 0
-4181 4176 4175 0
-4181 4176 597 0
-4177 4182 0
-4176 -597 4182 0
-4182 4177 4176 0
-4182 4177 597 0
-4178 4183 0
-4177 -597 4183 0
-4183 4178 4177 0
-4183 4178 597 0
-4179 4184 0
-598 4184 0
-4184 4179 598 0
-4180 4185 0
-4179 -598 4185 0
-4185 4180 4179 0
-4185 4180 598 0
-4181 4186 0
-4180 -598 4186 0
-4186 4181 4180 0
-4186 4181 598 0
-4182 4187 0
-4181 -598 4187 0
-4187 4182 4181 0
-4187 4182 598 0
-4183 4188 0
-4182 -598 4188 0
-4188 4183 4182 0
-4188 4183 598 0
-4184 4189 0
-599 4189 0
-4189 4184 599 0
-4185 4190 0
-4184 -599 4190 0
-4190 4185 4184 0
-4190 4185 599 0
-4186 4191 0
-4185 -599 4191 0
-4191 4186 4185 0
-4191 4186 599 0
-4187 4192 0
-4186 -599 4192 0
-4192 4187 4186 0
-4192 4187 599 0
-4188 4193 0
-4187 -599 4193 0
-4193 4188 4187 0
-4193 4188 599 0
-4189 4194 0
-600 4194 0
-4194 4189 600 0
-4190 4195 0
-4189 -600 4195 0
-4195 4190 4189 0
-4195 4190 600 0
-4191 4196 0
-4190 -600 4196 0
-4196 4191 4190 0
-4196 4191 600 0
-4192 4197 0
-4191 -600 4197 0
-4197 4192 4191 0
-4197 4192 600 0
-4193 4198 0
-4192 -600 4198 0
-4198 4193 4192 0
-4198 4193 600 0
-4194 4199 0
-601 4199 0
-4199 4194 601 0
-4195 4200 0
-4194 -601 4200 0
-4200 4195 4194 0
-4200 4195 601 0
-4196 4201 0
-4195 -601 4201 0
-4201 4196 4195 0
-4201 4196 601 0
-4197 4202 0
-4196 -601 4202 0
-4202 4197 4196 0
-4202 4197 601 0
-4198 4203 0
-4197 -601 4203 0
-4203 4198 4197 0
-4203 4198 601 0
-4199 4204 0
-602 4204 0
-4204 4199 602 0
-4200 4205 0
-4199 -602 4205 0
-4205 4200 4199 0
-4205 4200 602 0
-4201 4206 0
-4200 -602 4206 0
-4206 4201 4200 0
-4206 4201 602 0
-4202 4207 0
-4201 -602 4207 0
-4207 4202 4201 0
-4207 4202 602 0
-4203 4208 0
-4202 -602 4208 0
-4208 4203 4202 0
-4208 4203 602 0
-4204 4209 0
-603 4209 0
-4209 4204 603 0
-4205 4210 0
-4204 -603 4210 0
-4210 4205 4204 0
-4210 4205 603 0
-4206 4211 0
-4205 -603 4211 0
-4211 4206 4205 0
-4211 4206 603 0
-4207 4212 0
-4206 -603 4212 0
-4212 4207 4206 0
-4212 4207 603 0
-4208 4213 0
-4207 -603 4213 0
-4213 4208 4207 0
-4213 4208 603 0
-4209 4214 0
-604 4214 0
-4214 4209 604 0
-4210 4215 0
-4209 -604 4215 0
-4215 4210 4209 0
-4215 4210 604 0
-4211 4216 0
-4210 -604 4216 0
-4216 4211 4210 0
-4216 4211 604 0
-4212 4217 0
-4211 -604 4217 0
-4217 4212 4211 0
-4217 4212 604 0
-4213 4218 0
-4212 -604 4218 0
-4218 4213 4212 0
-4218 4213 604 0
-4214 4219 0
-605 4219 0
-4219 4214 605 0
-4215 4220 0
-4214 -605 4220 0
-4220 4215 4214 0
-4220 4215 605 0
-4216 4221 0
-4215 -605 4221 0
-4221 4216 4215 0
-4221 4216 605 0
-4217 4222 0
-4216 -605 4222 0
-4222 4217 4216 0
-4222 4217 605 0
-4218 4223 0
-4217 -605 4223 0
-4223 4218 4217 0
-4223 4218 605 0
-4219 4224 0
-606 4224 0
-4224 4219 606 0
-4220 4225 0
-4219 -606 4225 0
-4225 4220 4219 0
-4225 4220 606 0
-4221 4226 0
-4220 -606 4226 0
-4226 4221 4220 0
-4226 4221 606 0
-4222 4227 0
-4221 -606 4227 0
-4227 4222 4221 0
-4227 4222 606 0
-4223 4228 0
-4222 -606 4228 0
-4228 4223 4222 0
-4228 4223 606 0
-4224 4229 0
-607 4229 0
-4229 4224 607 0
-4225 4230 0
-4224 -607 4230 0
-4230 4225 4224 0
-4230 4225 607 0
-4226 4231 0
-4225 -607 4231 0
-4231 4226 4225 0
-4231 4226 607 0
-4227 4232 0
-4226 -607 4232 0
-4232 4227 4226 0
-4232 4227 607 0
-4228 4233 0
-4227 -607 4233 0
-4233 4228 4227 0
-4233 4228 607 0
-4229 4234 0
-608 4234 0
-4234 4229 608 0
-4230 4235 0
-4229 -608 4235 0
-4235 4230 4229 0
-4235 4230 608 0
-4231 4236 0
-4230 -608 4236 0
-4236 4231 4230 0
-4236 4231 608 0
-4232 4237 0
-4231 -608 4237 0
-4237 4232 4231 0
-4237 4232 608 0
-4233 4238 0
-4232 -608 4238 0
-4238 4233 4232 0
-4238 4233 608 0
-4234 4239 0
-609 4239 0
-4239 4234 609 0
-4235 4240 0
-4234 -609 4240 0
-4240 4235 4234 0
-4240 4235 609 0
-4236 4241 0
-4235 -609 4241 0
-4241 4236 4235 0
-4241 4236 609 0
-4237 4242 0
-4236 -609 4242 0
-4242 4237 4236 0
-4242 4237 609 0
-4238 4243 0
-4237 -609 4243 0
-4243 4238 4237 0
-4243 4238 609 0
-4239 4244 0
-610 4244 0
-4244 4239 610 0
-4240 4245 0
-4239 -610 4245 0
-4245 4240 4239 0
-4245 4240 610 0
-4241 4246 0
-4240 -610 4246 0
-4246 4241 4240 0
-4246 4241 610 0
-4242 4247 0
-4241 -610 4247 0
-4247 4242 4241 0
-4247 4242 610 0
-4243 4248 0
-4242 -610 4248 0
-4248 4243 4242 0
-4248 4243 610 0
-4244 4249 0
-611 4249 0
-4249 4244 611 0
-4245 4250 0
-4244 -611 4250 0
-4250 4245 4244 0
-4250 4245 611 0
-4246 4251 0
-4245 -611 4251 0
-4251 4246 4245 0
-4251 4246 611 0
-4247 4252 0
-4246 -611 4252 0
-4252 4247 4246 0
-4252 4247 611 0
-4248 4253 0
-4247 -611 4253 0
-4253 4248 4247 0
-4253 4248 611 0
-4249 4254 0
-612 4254 0
-4254 4249 612 0
-4250 4255 0
-4249 -612 4255 0
-4255 4250 4249 0
-4255 4250 612 0
-4251 4256 0
-4250 -612 4256 0
-4256 4251 4250 0
-4256 4251 612 0
-4252 4257 0
-4251 -612 4257 0
-4257 4252 4251 0
-4257 4252 612 0
-4253 4258 0
-4252 -612 4258 0
-4258 4253 4252 0
-4258 4253 612 0
-4254 4259 0
-613 4259 0
-4259 4254 613 0
-4255 4260 0
-4254 -613 4260 0
-4260 4255 4254 0
-4260 4255 613 0
-4256 4261 0
-4255 -613 4261 0
-4261 4256 4255 0
-4261 4256 613 0
-4257 4262 0
-4256 -613 4262 0
-4262 4257 4256 0
-4262 4257 613 0
-4258 4263 0
-4257 -613 4263 0
-4263 4258 4257 0
-4263 4258 613 0
-4259 4264 0
-614 4264 0
-4264 4259 614 0
-4260 4265 0
-4259 -614 4265 0
-4265 4260 4259 0
-4265 4260 614 0
-4261 4266 0
-4260 -614 4266 0
-4266 4261 4260 0
-4266 4261 614 0
-4262 4267 0
-4261 -614 4267 0
-4267 4262 4261 0
-4267 4262 614 0
-4263 4268 0
-4262 -614 4268 0
-4268 4263 4262 0
-4268 4263 614 0
-4264 4269 0
-615 4269 0
-4269 4264 615 0
-4265 4270 0
-4264 -615 4270 0
-4270 4265 4264 0
-4270 4265 615 0
-4266 4271 0
-4265 -615 4271 0
-4271 4266 4265 0
-4271 4266 615 0
-4267 4272 0
-4266 -615 4272 0
-4272 4267 4266 0
-4272 4267 615 0
-4268 4273 0
-4267 -615 4273 0
-4273 4268 4267 0
-4273 4268 615 0
-4269 4274 0
-616 4274 0
-4274 4269 616 0
-4270 4275 0
-4269 -616 4275 0
-4275 4270 4269 0
-4275 4270 616 0
-4271 4276 0
-4270 -616 4276 0
-4276 4271 4270 0
-4276 4271 616 0
-4272 4277 0
-4271 -616 4277 0
-4277 4272 4271 0
-4277 4272 616 0
-4273 4278 0
-4272 -616 4278 0
-4278 4273 4272 0
-4278 4273 616 0
-4274 4279 0
-617 4279 0
-4279 4274 617 0
-4275 4280 0
-4274 -617 4280 0
-4280 4275 4274 0
-4280 4275 617 0
-4276 4281 0
-4275 -617 4281 0
-4281 4276 4275 0
-4281 4276 617 0
-4277 4282 0
-4276 -617 4282 0
-4282 4277 4276 0
-4282 4277 617 0
-4278 4283 0
-4277 -617 4283 0
-4283 4278 4277 0
-4283 4278 617 0
-4279 4284 0
-618 4284 0
-4284 4279 618 0
-4280 4285 0
-4279 -618 4285 0
-4285 4280 4279 0
-4285 4280 618 0
-4281 4286 0
-4280 -618 4286 0
-4286 4281 4280 0
-4286 4281 618 0
-4282 4287 0
-4281 -618 4287 0
-4287 4282 4281 0
-4287 4282 618 0
-4283 4288 0
-4282 -618 4288 0
-4288 4283 4282 0
-4288 4283 618 0
-4284 4289 0
-619 4289 0
-4289 4284 619 0
-4285 4290 0
-4284 -619 4290 0
-4290 4285 4284 0
-4290 4285 619 0
-4286 4291 0
-4285 -619 4291 0
-4291 4286 4285 0
-4291 4286 619 0
-4287 4292 0
-4286 -619 4292 0
-4292 4287 4286 0
-4292 4287 619 0
-4288 4293 0
-4287 -619 4293 0
-4293 4288 4287 0
-4293 4288 619 0
-4289 4294 0
-620 4294 0
-4294 4289 620 0
-4290 4295 0
-4289 -620 4295 0
-4295 4290 4289 0
-4295 4290 620 0
-4291 4296 0
-4290 -620 4296 0
-4296 4291 4290 0
-4296 4291 620 0
-4292 4297 0
-4291 -620 4297 0
-4297 4292 4291 0
-4297 4292 620 0
-4293 4298 0
-4292 -620 4298 0
-4298 4293 4292 0
-4298 4293 620 0
-4294 4299 0
-621 4299 0
-4299 4294 621 0
-4295 4300 0
-4294 -621 4300 0
-4300 4295 4294 0
-4300 4295 621 0
-4296 4301 0
-4295 -621 4301 0
-4301 4296 4295 0
-4301 4296 621 0
-4297 4302 0
-4296 -621 4302 0
-4302 4297 4296 0
-4302 4297 621 0
-4298 4303 0
-4297 -621 4303 0
-4303 4298 4297 0
-4303 4298 621 0
-4299 4304 0
-622 4304 0
-4304 4299 622 0
-4300 4305 0
-4299 -622 4305 0
-4305 4300 4299 0
-4305 4300 622 0
-4301 4306 0
-4300 -622 4306 0
-4306 4301 4300 0
-4306 4301 622 0
-4302 4307 0
-4301 -622 4307 0
-4307 4302 4301 0
-4307 4302 622 0
-4303 4308 0
-4302 -622 4308 0
-4308 4303 4302 0
-4308 4303 622 0
-4304 4309 0
-623 4309 0
-4309 4304 623 0
-4305 4310 0
-4304 -623 4310 0
-4310 4305 4304 0
-4310 4305 623 0
-4306 4311 0
-4305 -623 4311 0
-4311 4306 4305 0
-4311 4306 623 0
-4307 4312 0
-4306 -623 4312 0
-4312 4307 4306 0
-4312 4307 623 0
-4308 4313 0
-4307 -623 4313 0
-4313 4308 4307 0
-4313 4308 623 0
-4309 4314 0
-624 4314 0
-4314 4309 624 0
-4310 4315 0
-4309 -624 4315 0
-4315 4310 4309 0
-4315 4310 624 0
-4311 4316 0
-4310 -624 4316 0
-4316 4311 4310 0
-4316 4311 624 0
-4312 4317 0
-4311 -624 4317 0
-4317 4312 4311 0
-4317 4312 624 0
-4313 4318 0
-4312 -624 4318 0
-4318 4313 4312 0
-4318 4313 624 0
-4314 4319 0
-625 4319 0
-4319 4314 625 0
-4315 4320 0
-4314 -625 4320 0
-4320 4315 4314 0
-4320 4315 625 0
-4316 4321 0
-4315 -625 4321 0
-4321 4316 4315 0
-4321 4316 625 0
-4317 4322 0
-4316 -625 4322 0
-4322 4317 4316 0
-4322 4317 625 0
-4318 4323 0
-4317 -625 4323 0
-4323 4318 4317 0
-4323 4318 625 0
-4319 4324 0
-626 4324 0
-4324 4319 626 0
-4320 4325 0
-4319 -626 4325 0
-4325 4320 4319 0
-4325 4320 626 0
-4321 4326 0
-4320 -626 4326 0
-4326 4321 4320 0
-4326 4321 626 0
-4322 4327 0
-4321 -626 4327 0
-4327 4322 4321 0
-4327 4322 626 0
-4323 4328 0
-4322 -626 4328 0
-4328 4323 4322 0
-4328 4323 626 0
-4324 4329 0
-627 4329 0
-4329 4324 627 0
-4325 4330 0
-4324 -627 4330 0
-4330 4325 4324 0
-4330 4325 627 0
-4326 4331 0
-4325 -627 4331 0
-4331 4326 4325 0
-4331 4326 627 0
-4327 4332 0
-4326 -627 4332 0
-4332 4327 4326 0
-4332 4327 627 0
-4328 4333 0
-4327 -627 4333 0
-4333 4328 4327 0
-4333 4328 627 0
-4329 4334 0
-628 4334 0
-4334 4329 628 0
-4330 4335 0
-4329 -628 4335 0
-4335 4330 4329 0
-4335 4330 628 0
-4331 4336 0
-4330 -628 4336 0
-4336 4331 4330 0
-4336 4331 628 0
-4332 4337 0
-4331 -628 4337 0
-4337 4332 4331 0
-4337 4332 628 0
-4333 4338 0
-4332 -628 4338 0
-4338 4333 4332 0
-4338 4333 628 0
-4334 4339 0
-629 4339 0
-4339 4334 629 0
-4335 4340 0
-4334 -629 4340 0
-4340 4335 4334 0
-4340 4335 629 0
-4336 4341 0
-4335 -629 4341 0
-4341 4336 4335 0
-4341 4336 629 0
-4337 4342 0
-4336 -629 4342 0
-4342 4337 4336 0
-4342 4337 629 0
-4338 4343 0
-4337 -629 4343 0
-4343 4338 4337 0
-4343 4338 629 0
-4339 4344 0
-630 4344 0
-4344 4339 630 0
-4340 4345 0
-4339 -630 4345 0
-4345 4340 4339 0
-4345 4340 630 0
-4341 4346 0
-4340 -630 4346 0
-4346 4341 4340 0
-4346 4341 630 0
-4342 4347 0
-4341 -630 4347 0
-4347 4342 4341 0
-4347 4342 630 0
-4343 4348 0
-4342 -630 4348 0
-4348 4343 4342 0
-4348 4343 630 0
-4344 4349 0
-631 4349 0
-4349 4344 631 0
-4345 4350 0
-4344 -631 4350 0
-4350 4345 4344 0
-4350 4345 631 0
-4346 4351 0
-4345 -631 4351 0
-4351 4346 4345 0
-4351 4346 631 0
-4347 4352 0
-4346 -631 4352 0
-4352 4347 4346 0
-4352 4347 631 0
-4348 4353 0
-4347 -631 4353 0
-4353 4348 4347 0
-4353 4348 631 0
-4349 4354 0
-632 4354 0
-4354 4349 632 0
-4350 4355 0
-4349 -632 4355 0
-4355 4350 4349 0
-4355 4350 632 0
-4351 4356 0
-4350 -632 4356 0
-4356 4351 4350 0
-4356 4351 632 0
-4352 4357 0
-4351 -632 4357 0
-4357 4352 4351 0
-4357 4352 632 0
-4353 4358 0
-4352 -632 4358 0
-4358 4353 4352 0
-4358 4353 632 0
-4354 4359 0
-633 4359 0
-4359 4354 633 0
-4355 4360 0
-4354 -633 4360 0
-4360 4355 4354 0
-4360 4355 633 0
-4356 4361 0
-4355 -633 4361 0
-4361 4356 4355 0
-4361 4356 633 0
-4357 4362 0
-4356 -633 4362 0
-4362 4357 4356 0
-4362 4357 633 0
-4358 4363 0
-4357 -633 4363 0
-4363 4358 4357 0
-4363 4358 633 0
-4359 4364 0
-634 4364 0
-4364 4359 634 0
-4360 4365 0
-4359 -634 4365 0
-4365 4360 4359 0
-4365 4360 634 0
-4361 4366 0
-4360 -634 4366 0
-4366 4361 4360 0
-4366 4361 634 0
-4362 4367 0
-4361 -634 4367 0
-4367 4362 4361 0
-4367 4362 634 0
-4363 4368 0
-4362 -634 4368 0
-4368 4363 4362 0
-4368 4363 634 0
-4364 4369 0
-635 4369 0
-4369 4364 635 0
-4365 4370 0
-4364 -635 4370 0
-4370 4365 4364 0
-4370 4365 635 0
-4366 4371 0
-4365 -635 4371 0
-4371 4366 4365 0
-4371 4366 635 0
-4367 4372 0
-4366 -635 4372 0
-4372 4367 4366 0
-4372 4367 635 0
-4368 4373 0
-4367 -635 4373 0
-4373 4368 4367 0
-4373 4368 635 0
-4369 4374 0
-636 4374 0
-4374 4369 636 0
-4370 4375 0
-4369 -636 4375 0
-4375 4370 4369 0
-4375 4370 636 0
-4371 4376 0
-4370 -636 4376 0
-4376 4371 4370 0
-4376 4371 636 0
-4372 4377 0
-4371 -636 4377 0
-4377 4372 4371 0
-4377 4372 636 0
-4373 4378 0
-4372 -636 4378 0
-4378 4373 4372 0
-4378 4373 636 0
-4374 4379 0
-637 4379 0
-4379 4374 637 0
-4375 4380 0
-4374 -637 4380 0
-4380 4375 4374 0
-4380 4375 637 0
-4376 4381 0
-4375 -637 4381 0
-4381 4376 4375 0
-4381 4376 637 0
-4377 4382 0
-4376 -637 4382 0
-4382 4377 4376 0
-4382 4377 637 0
-4378 4383 0
-4377 -637 4383 0
-4383 4378 4377 0
-4383 4378 637 0
-4379 4384 0
-638 4384 0
-4384 4379 638 0
-4380 4385 0
-4379 -638 4385 0
-4385 4380 4379 0
-4385 4380 638 0
-4381 4386 0
-4380 -638 4386 0
-4386 4381 4380 0
-4386 4381 638 0
-4382 4387 0
-4381 -638 4387 0
-4387 4382 4381 0
-4387 4382 638 0
-4383 4388 0
-4382 -638 4388 0
-4388 4383 4382 0
-4388 4383 638 0
-4384 4389 0
-639 4389 0
-4389 4384 639 0
-4385 4390 0
-4384 -639 4390 0
-4390 4385 4384 0
-4390 4385 639 0
-4386 4391 0
-4385 -639 4391 0
-4391 4386 4385 0
-4391 4386 639 0
-4387 4392 0
-4386 -639 4392 0
-4392 4387 4386 0
-4392 4387 639 0
-4388 4393 0
-4387 -639 4393 0
-4393 4388 4387 0
-4393 4388 639 0
-4389 4394 0
-640 4394 0
-4394 4389 640 0
-4390 4395 0
-4389 -640 4395 0
-4395 4390 4389 0
-4395 4390 640 0
-4391 4396 0
-4390 -640 4396 0
-4396 4391 4390 0
-4396 4391 640 0
-4392 4397 0
-4391 -640 4397 0
-4397 4392 4391 0
-4397 4392 640 0
-4393 4398 0
-4392 -640 4398 0
-4398 4393 4392 0
-4398 4393 640 0
-4394 4399 0
-641 4399 0
-4399 4394 641 0
-4395 4400 0
-4394 -641 4400 0
-4400 4395 4394 0
-4400 4395 641 0
-4396 4401 0
-4395 -641 4401 0
-4401 4396 4395 0
-4401 4396 641 0
-4397 4402 0
-4396 -641 4402 0
-4402 4397 4396 0
-4402 4397 641 0
-4398 4403 0
-4397 -641 4403 0
-4403 4398 4397 0
-4403 4398 641 0
-4399 4404 0
-642 4404 0
-4404 4399 642 0
-4400 4405 0
-4399 -642 4405 0
-4405 4400 4399 0
-4405 4400 642 0
-4401 4406 0
-4400 -642 4406 0
-4406 4401 4400 0
-4406 4401 642 0
-4402 4407 0
-4401 -642 4407 0
-4407 4402 4401 0
-4407 4402 642 0
-4403 4408 0
-4402 -642 4408 0
-4408 4403 4402 0
-4408 4403 642 0
-4404 4409 0
-643 4409 0
-4409 4404 643 0
-4405 4410 0
-4404 -643 4410 0
-4410 4405 4404 0
-4410 4405 643 0
-4406 4411 0
-4405 -643 4411 0
-4411 4406 4405 0
-4411 4406 643 0
-4407 4412 0
-4406 -643 4412 0
-4412 4407 4406 0
-4412 4407 643 0
-4408 4413 0
-4407 -643 4413 0
-4413 4408 4407 0
-4413 4408 643 0
-4409 4414 0
-644 4414 0
-4414 4409 644 0
-4410 4415 0
-4409 -644 4415 0
-4415 4410 4409 0
-4415 4410 644 0
-4411 4416 0
-4410 -644 4416 0
-4416 4411 4410 0
-4416 4411 644 0
-4412 4417 0
-4411 -644 4417 0
-4417 4412 4411 0
-4417 4412 644 0
-4413 4418 0
-4412 -644 4418 0
-4418 4413 4412 0
-4418 4413 644 0
-4414 4419 0
-645 4419 0
-4419 4414 645 0
-4415 4420 0
-4414 -645 4420 0
-4420 4415 4414 0
-4420 4415 645 0
-4416 4421 0
-4415 -645 4421 0
-4421 4416 4415 0
-4421 4416 645 0
-4417 4422 0
-4416 -645 4422 0
-4422 4417 4416 0
-4422 4417 645 0
-4418 4423 0
-4417 -645 4423 0
-4423 4418 4417 0
-4423 4418 645 0
-4419 4424 0
-646 4424 0
-4424 4419 646 0
-4420 4425 0
-4419 -646 4425 0
-4425 4420 4419 0
-4425 4420 646 0
-4421 4426 0
-4420 -646 4426 0
-4426 4421 4420 0
-4426 4421 646 0
-4422 4427 0
-4421 -646 4427 0
-4427 4422 4421 0
-4427 4422 646 0
-4423 4428 0
-4422 -646 4428 0
-4428 4423 4422 0
-4428 4423 646 0
-4424 4429 0
-647 4429 0
-4429 4424 647 0
-4425 4430 0
-4424 -647 4430 0
-4430 4425 4424 0
-4430 4425 647 0
-4426 4431 0
-4425 -647 4431 0
-4431 4426 4425 0
-4431 4426 647 0
-4427 4432 0
-4426 -647 4432 0
-4432 4427 4426 0
-4432 4427 647 0
-4428 4433 0
-4427 -647 4433 0
-4433 4428 4427 0
-4433 4428 647 0
-4429 4434 0
-648 4434 0
-4434 4429 648 0
-4430 4435 0
-4429 -648 4435 0
-4435 4430 4429 0
-4435 4430 648 0
-4431 4436 0
-4430 -648 4436 0
-4436 4431 4430 0
-4436 4431 648 0
-4432 4437 0
-4431 -648 4437 0
-4437 4432 4431 0
-4437 4432 648 0
-4433 4438 0
-4432 -648 4438 0
-4438 4433 4432 0
-4438 4433 648 0
-4434 4439 0
-649 4439 0
-4439 4434 649 0
-4435 4440 0
-4434 -649 4440 0
-4440 4435 4434 0
-4440 4435 649 0
-4436 4441 0
-4435 -649 4441 0
-4441 4436 4435 0
-4441 4436 649 0
-4437 4442 0
-4436 -649 4442 0
-4442 4437 4436 0
-4442 4437 649 0
-4438 4443 0
-4437 -649 4443 0
-4443 4438 4437 0
-4443 4438 649 0
-4439 4444 0
-650 4444 0
-4444 4439 650 0
-4440 4445 0
-4439 -650 4445 0
-4445 4440 4439 0
-4445 4440 650 0
-4441 4446 0
-4440 -650 4446 0
-4446 4441 4440 0
-4446 4441 650 0
-4442 4447 0
-4441 -650 4447 0
-4447 4442 4441 0
-4447 4442 650 0
-4443 4448 0
-4442 -650 4448 0
-4448 4443 4442 0
-4448 4443 650 0
-4444 4449 0
-651 4449 0
-4449 4444 651 0
-4445 4450 0
-4444 -651 4450 0
-4450 4445 4444 0
-4450 4445 651 0
-4446 4451 0
-4445 -651 4451 0
-4451 4446 4445 0
-4451 4446 651 0
-4447 4452 0
-4446 -651 4452 0
-4452 4447 4446 0
-4452 4447 651 0
-4448 4453 0
-4447 -651 4453 0
-4453 4448 4447 0
-4453 4448 651 0
-4449 4454 0
-652 4454 0
-4454 4449 652 0
-4450 4455 0
-4449 -652 4455 0
-4455 4450 4449 0
-4455 4450 652 0
-4451 4456 0
-4450 -652 4456 0
-4456 4451 4450 0
-4456 4451 652 0
-4452 4457 0
-4451 -652 4457 0
-4457 4452 4451 0
-4457 4452 652 0
-4453 4458 0
-4452 -652 4458 0
-4458 4453 4452 0
-4458 4453 652 0
-4454 4459 0
-653 4459 0
-4459 4454 653 0
-4455 4460 0
-4454 -653 4460 0
-4460 4455 4454 0
-4460 4455 653 0
-4456 4461 0
-4455 -653 4461 0
-4461 4456 4455 0
-4461 4456 653 0
-4457 4462 0
-4456 -653 4462 0
-4462 4457 4456 0
-4462 4457 653 0
-4458 4463 0
-4457 -653 4463 0
-4463 4458 4457 0
-4463 4458 653 0
-4459 4464 0
-654 4464 0
-4464 4459 654 0
-4460 4465 0
-4459 -654 4465 0
-4465 4460 4459 0
-4465 4460 654 0
-4461 4466 0
-4460 -654 4466 0
-4466 4461 4460 0
-4466 4461 654 0
-4462 4467 0
-4461 -654 4467 0
-4467 4462 4461 0
-4467 4462 654 0
-4463 4468 0
-4462 -654 4468 0
-4468 4463 4462 0
-4468 4463 654 0
-4464 4469 0
-655 4469 0
-4469 4464 655 0
-4465 4470 0
-4464 -655 4470 0
-4470 4465 4464 0
-4470 4465 655 0
-4466 4471 0
-4465 -655 4471 0
-4471 4466 4465 0
-4471 4466 655 0
-4467 4472 0
-4466 -655 4472 0
-4472 4467 4466 0
-4472 4467 655 0
-4468 4473 0
-4467 -655 4473 0
-4473 4468 4467 0
-4473 4468 655 0
-4469 4474 0
-656 4474 0
-4474 4469 656 0
-4470 4475 0
-4469 -656 4475 0
-4475 4470 4469 0
-4475 4470 656 0
-4471 4476 0
-4470 -656 4476 0
-4476 4471 4470 0
-4476 4471 656 0
-4472 4477 0
-4471 -656 4477 0
-4477 4472 4471 0
-4477 4472 656 0
-4473 4478 0
-4472 -656 4478 0
-4478 4473 4472 0
-4478 4473 656 0
-4474 4479 0
-657 4479 0
-4479 4474 657 0
-4475 4480 0
-4474 -657 4480 0
-4480 4475 4474 0
-4480 4475 657 0
-4476 4481 0
-4475 -657 4481 0
-4481 4476 4475 0
-4481 4476 657 0
-4477 4482 0
-4476 -657 4482 0
-4482 4477 4476 0
-4482 4477 657 0
-4478 4483 0
-4477 -657 4483 0
-4483 4478 4477 0
-4483 4478 657 0
-4479 4484 0
-658 4484 0
-4484 4479 658 0
-4480 4485 0
-4479 -658 4485 0
-4485 4480 4479 0
-4485 4480 658 0
-4481 4486 0
-4480 -658 4486 0
-4486 4481 4480 0
-4486 4481 658 0
-4482 4487 0
-4481 -658 4487 0
-4487 4482 4481 0
-4487 4482 658 0
-4483 4488 0
-4482 -658 4488 0
-4488 4483 4482 0
-4488 4483 658 0
-4484 4489 0
-659 4489 0
-4489 4484 659 0
-4485 4490 0
-4484 -659 4490 0
-4490 4485 4484 0
-4490 4485 659 0
-4486 4491 0
-4485 -659 4491 0
-4491 4486 4485 0
-4491 4486 659 0
-4487 4492 0
-4486 -659 4492 0
-4492 4487 4486 0
-4492 4487 659 0
-4488 4493 0
-4487 -659 4493 0
-4493 4488 4487 0
-4493 4488 659 0
-4489 4494 0
-660 4494 0
-4494 4489 660 0
-4490 4495 0
-4489 -660 4495 0
-4495 4490 4489 0
-4495 4490 660 0
-4491 4496 0
-4490 -660 4496 0
-4496 4491 4490 0
-4496 4491 660 0
-4492 4497 0
-4491 -660 4497 0
-4497 4492 4491 0
-4497 4492 660 0
-4493 4498 0
-4492 -660 4498 0
-4498 4493 4492 0
-4498 4493 660 0
-4494 4499 0
-661 4499 0
-4499 4494 661 0
-4495 4500 0
-4494 -661 4500 0
-4500 4495 4494 0
-4500 4495 661 0
-4496 4501 0
-4495 -661 4501 0
-4501 4496 4495 0
-4501 4496 661 0
-4497 4502 0
-4496 -661 4502 0
-4502 4497 4496 0
-4502 4497 661 0
-4498 4503 0
-4497 -661 4503 0
-4503 4498 4497 0
-4503 4498 661 0
-4499 4504 0
-662 4504 0
-4504 4499 662 0
-4500 4505 0
-4499 -662 4505 0
-4505 4500 4499 0
-4505 4500 662 0
-4501 4506 0
-4500 -662 4506 0
-4506 4501 4500 0
-4506 4501 662 0
-4502 4507 0
-4501 -662 4507 0
-4507 4502 4501 0
-4507 4502 662 0
-4503 4508 0
-4502 -662 4508 0
-4508 4503 4502 0
-4508 4503 662 0
-4504 4509 0
-663 4509 0
-4509 4504 663 0
-4505 4510 0
-4504 -663 4510 0
-4510 4505 4504 0
-4510 4505 663 0
-4506 4511 0
-4505 -663 4511 0
-4511 4506 4505 0
-4511 4506 663 0
-4507 4512 0
-4506 -663 4512 0
-4512 4507 4506 0
-4512 4507 663 0
-4508 4513 0
-4507 -663 4513 0
-4513 4508 4507 0
-4513 4508 663 0
-4509 4514 0
-664 4514 0
-4514 4509 664 0
-4510 4515 0
-4509 -664 4515 0
-4515 4510 4509 0
-4515 4510 664 0
-4511 4516 0
-4510 -664 4516 0
-4516 4511 4510 0
-4516 4511 664 0
-4512 4517 0
-4511 -664 4517 0
-4517 4512 4511 0
-4517 4512 664 0
-4513 4518 0
-4512 -664 4518 0
-4518 4513 4512 0
-4518 4513 664 0
-4514 4519 0
-665 4519 0
-4519 4514 665 0
-4515 4520 0
-4514 -665 4520 0
-4520 4515 4514 0
-4520 4515 665 0
-4516 4521 0
-4515 -665 4521 0
-4521 4516 4515 0
-4521 4516 665 0
-4517 4522 0
-4516 -665 4522 0
-4522 4517 4516 0
-4522 4517 665 0
-4518 4523 0
-4517 -665 4523 0
-4523 4518 4517 0
-4523 4518 665 0
-4519 4524 0
-666 4524 0
-4524 4519 666 0
-4520 4525 0
-4519 -666 4525 0
-4525 4520 4519 0
-4525 4520 666 0
-4521 4526 0
-4520 -666 4526 0
-4526 4521 4520 0
-4526 4521 666 0
-4522 4527 0
-4521 -666 4527 0
-4527 4522 4521 0
-4527 4522 666 0
-4523 4528 0
-4522 -666 4528 0
-4528 4523 4522 0
-4528 4523 666 0
-4524 4529 0
-667 4529 0
-4529 4524 667 0
-4525 4530 0
-4524 -667 4530 0
-4530 4525 4524 0
-4530 4525 667 0
-4526 4531 0
-4525 -667 4531 0
-4531 4526 4525 0
-4531 4526 667 0
-4527 4532 0
-4526 -667 4532 0
-4532 4527 4526 0
-4532 4527 667 0
-4528 4533 0
-4527 -667 4533 0
-4533 4528 4527 0
-4533 4528 667 0
-4529 4534 0
-668 4534 0
-4534 4529 668 0
-4530 4535 0
-4529 -668 4535 0
-4535 4530 4529 0
-4535 4530 668 0
-4531 4536 0
-4530 -668 4536 0
-4536 4531 4530 0
-4536 4531 668 0
-4532 4537 0
-4531 -668 4537 0
-4537 4532 4531 0
-4537 4532 668 0
-4533 4538 0
-4532 -668 4538 0
-4538 4533 4532 0
-4538 4533 668 0
-4534 4539 0
-669 4539 0
-4539 4534 669 0
-4535 4540 0
-4534 -669 4540 0
-4540 4535 4534 0
-4540 4535 669 0
-4536 4541 0
-4535 -669 4541 0
-4541 4536 4535 0
-4541 4536 669 0
-4537 4542 0
-4536 -669 4542 0
-4542 4537 4536 0
-4542 4537 669 0
-4538 4543 0
-4537 -669 4543 0
-4543 4538 4537 0
-4543 4538 669 0
-4539 4544 0
-670 4544 0
-4544 4539 670 0
-4540 4545 0
-4539 -670 4545 0
-4545 4540 4539 0
-4545 4540 670 0
-4541 4546 0
-4540 -670 4546 0
-4546 4541 4540 0
-4546 4541 670 0
-4542 4547 0
-4541 -670 4547 0
-4547 4542 4541 0
-4547 4542 670 0
-4543 4548 0
-4542 -670 4548 0
-4548 4543 4542 0
-4548 4543 670 0
-4544 4549 0
-671 4549 0
-4549 4544 671 0
-4545 4550 0
-4544 -671 4550 0
-4550 4545 4544 0
-4550 4545 671 0
-4546 4551 0
-4545 -671 4551 0
-4551 4546 4545 0
-4551 4546 671 0
-4547 4552 0
-4546 -671 4552 0
-4552 4547 4546 0
-4552 4547 671 0
-4548 4553 0
-4547 -671 4553 0
-4553 4548 4547 0
-4553 4548 671 0
-4549 4554 0
-672 4554 0
-4554 4549 672 0
-4550 4555 0
-4549 -672 4555 0
-4555 4550 4549 0
-4555 4550 672 0
-4551 4556 0
-4550 -672 4556 0
-4556 4551 4550 0
-4556 4551 672 0
-4552 4557 0
-4551 -672 4557 0
-4557 4552 4551 0
-4557 4552 672 0
-4553 4558 0
-4552 -672 4558 0
-4558 4553 4552 0
-4558 4553 672 0
-4554 4559 0
-673 4559 0
-4559 4554 673 0
-4555 4560 0
-4554 -673 4560 0
-4560 4555 4554 0
-4560 4555 673 0
-4556 4561 0
-4555 -673 4561 0
-4561 4556 4555 0
-4561 4556 673 0
-4557 4562 0
-4556 -673 4562 0
-4562 4557 4556 0
-4562 4557 673 0
-4558 4563 0
-4557 -673 4563 0
-4563 4558 4557 0
-4563 4558 673 0
-4559 4564 0
-674 4564 0
-4564 4559 674 0
-4560 4565 0
-4559 -674 4565 0
-4565 4560 4559 0
-4565 4560 674 0
-4561 4566 0
-4560 -674 4566 0
-4566 4561 4560 0
-4566 4561 674 0
-4562 4567 0
-4561 -674 4567 0
-4567 4562 4561 0
-4567 4562 674 0
-4563 4568 0
-4562 -674 4568 0
-4568 4563 4562 0
-4568 4563 674 0
-4564 4569 0
-675 4569 0
-4569 4564 675 0
-4565 4570 0
-4564 -675 4570 0
-4570 4565 4564 0
-4570 4565 675 0
-4566 4571 0
-4565 -675 4571 0
-4571 4566 4565 0
-4571 4566 675 0
-4567 4572 0
-4566 -675 4572 0
-4572 4567 4566 0
-4572 4567 675 0
-4568 4573 0
-4567 -675 4573 0
-4573 4568 4567 0
-4573 4568 675 0
-4569 4574 0
-676 4574 0
-4574 4569 676 0
-4570 4575 0
-4569 -676 4575 0
-4575 4570 4569 0
-4575 4570 676 0
-4571 4576 0
-4570 -676 4576 0
-4576 4571 4570 0
-4576 4571 676 0
-4572 4577 0
-4571 -676 4577 0
-4577 4572 4571 0
-4577 4572 676 0
-4573 4578 0
-4572 -676 4578 0
-4578 4573 4572 0
-4578 4573 676 0
-4574 4579 0
-677 4579 0
-4579 4574 677 0
-4575 4580 0
-4574 -677 4580 0
-4580 4575 4574 0
-4580 4575 677 0
-4576 4581 0
-4575 -677 4581 0
-4581 4576 4575 0
-4581 4576 677 0
-4577 4582 0
-4576 -677 4582 0
-4582 4577 4576 0
-4582 4577 677 0
-4578 4583 0
-4577 -677 4583 0
-4583 4578 4577 0
-4583 4578 677 0
-4579 4584 0
-678 4584 0
-4584 4579 678 0
-4580 4585 0
-4579 -678 4585 0
-4585 4580 4579 0
-4585 4580 678 0
-4581 4586 0
-4580 -678 4586 0
-4586 4581 4580 0
-4586 4581 678 0
-4582 4587 0
-4581 -678 4587 0
-4587 4582 4581 0
-4587 4582 678 0
-4583 4588 0
-4582 -678 4588 0
-4588 4583 4582 0
-4588 4583 678 0
-4584 4589 0
-679 4589 0
-4589 4584 679 0
-4585 4590 0
-4584 -679 4590 0
-4590 4585 4584 0
-4590 4585 679 0
-4586 4591 0
-4585 -679 4591 0
-4591 4586 4585 0
-4591 4586 679 0
-4587 4592 0
-4586 -679 4592 0
-4592 4587 4586 0
-4592 4587 679 0
-4588 4593 0
-4587 -679 4593 0
-4593 4588 4587 0
-4593 4588 679 0
-4589 4594 0
-680 4594 0
-4594 4589 680 0
-4590 4595 0
-4589 -680 4595 0
-4595 4590 4589 0
-4595 4590 680 0
-4591 4596 0
-4590 -680 4596 0
-4596 4591 4590 0
-4596 4591 680 0
-4592 4597 0
-4591 -680 4597 0
-4597 4592 4591 0
-4597 4592 680 0
-4593 4598 0
-4592 -680 4598 0
-4598 4593 4592 0
-4598 4593 680 0
-4594 4599 0
-681 4599 0
-4599 4594 681 0
-4595 4600 0
-4594 -681 4600 0
-4600 4595 4594 0
-4600 4595 681 0
-4596 4601 0
-4595 -681 4601 0
-4601 4596 4595 0
-4601 4596 681 0
-4597 4602 0
-4596 -681 4602 0
-4602 4597 4596 0
-4602 4597 681 0
-4598 4603 0
-4597 -681 4603 0
-4603 4598 4597 0
-4603 4598 681 0
-4599 4604 0
-682 4604 0
-4604 4599 682 0
-4600 4605 0
-4599 -682 4605 0
-4605 4600 4599 0
-4605 4600 682 0
-4601 4606 0
-4600 -682 4606 0
-4606 4601 4600 0
-4606 4601 682 0
-4602 4607 0
-4601 -682 4607 0
-4607 4602 4601 0
-4607 4602 682 0
-4603 4608 0
-4602 -682 4608 0
-4608 4603 4602 0
-4608 4603 682 0
-4604 4609 0
-683 4609 0
-4609 4604 683 0
-4605 4610 0
-4604 -683 4610 0
-4610 4605 4604 0
-4610 4605 683 0
-4606 4611 0
-4605 -683 4611 0
-4611 4606 4605 0
-4611 4606 683 0
-4607 4612 0
-4606 -683 4612 0
-4612 4607 4606 0
-4612 4607 683 0
-4608 4613 0
-4607 -683 4613 0
-4613 4608 4607 0
-4613 4608 683 0
-4609 4614 0
-684 4614 0
-4614 4609 684 0
-4610 4615 0
-4609 -684 4615 0
-4615 4610 4609 0
-4615 4610 684 0
-4611 4616 0
-4610 -684 4616 0
-4616 4611 4610 0
-4616 4611 684 0
-4612 4617 0
-4611 -684 4617 0
-4617 4612 4611 0
-4617 4612 684 0
-4613 4618 0
-4612 -684 4618 0
-4618 4613 4612 0
-4618 4613 684 0
-4614 4619 0
-685 4619 0
-4619 4614 685 0
-4615 4620 0
-4614 -685 4620 0
-4620 4615 4614 0
-4620 4615 685 0
-4616 4621 0
-4615 -685 4621 0
-4621 4616 4615 0
-4621 4616 685 0
-4617 4622 0
-4616 -685 4622 0
-4622 4617 4616 0
-4622 4617 685 0
-4618 4623 0
-4617 -685 4623 0
-4623 4618 4617 0
-4623 4618 685 0
-4619 4624 0
-686 4624 0
-4624 4619 686 0
-4620 4625 0
-4619 -686 4625 0
-4625 4620 4619 0
-4625 4620 686 0
-4621 4626 0
-4620 -686 4626 0
-4626 4621 4620 0
-4626 4621 686 0
-4622 4627 0
-4621 -686 4627 0
-4627 4622 4621 0
-4627 4622 686 0
-4623 4628 0
-4622 -686 4628 0
-4628 4623 4622 0
-4628 4623 686 0
-4624 4629 0
-687 4629 0
-4629 4624 687 0
-4625 4630 0
-4624 -687 4630 0
-4630 4625 4624 0
-4630 4625 687 0
-4626 4631 0
-4625 -687 4631 0
-4631 4626 4625 0
-4631 4626 687 0
-4627 4632 0
-4626 -687 4632 0
-4632 4627 4626 0
-4632 4627 687 0
-4628 4633 0
-4627 -687 4633 0
-4633 4628 4627 0
-4633 4628 687 0
-4629 4634 0
-688 4634 0
-4634 4629 688 0
-4630 4635 0
-4629 -688 4635 0
-4635 4630 4629 0
-4635 4630 688 0
-4631 4636 0
-4630 -688 4636 0
-4636 4631 4630 0
-4636 4631 688 0
-4632 4637 0
-4631 -688 4637 0
-4637 4632 4631 0
-4637 4632 688 0
-4633 4638 0
-4632 -688 4638 0
-4638 4633 4632 0
-4638 4633 688 0
-4634 4639 0
-689 4639 0
-4639 4634 689 0
-4635 4640 0
-4634 -689 4640 0
-4640 4635 4634 0
-4640 4635 689 0
-4636 4641 0
-4635 -689 4641 0
-4641 4636 4635 0
-4641 4636 689 0
-4637 4642 0
-4636 -689 4642 0
-4642 4637 4636 0
-4642 4637 689 0
-4638 4643 0
-4637 -689 4643 0
-4643 4638 4637 0
-4643 4638 689 0
-4639 4644 0
-690 4644 0
-4644 4639 690 0
-4640 4645 0
-4639 -690 4645 0
-4645 4640 4639 0
-4645 4640 690 0
-4641 4646 0
-4640 -690 4646 0
-4646 4641 4640 0
-4646 4641 690 0
-4642 4647 0
-4641 -690 4647 0
-4647 4642 4641 0
-4647 4642 690 0
-4643 4648 0
-4642 -690 4648 0
-4648 4643 4642 0
-4648 4643 690 0
-4644 4649 0
-691 4649 0
-4649 4644 691 0
-4645 4650 0
-4644 -691 4650 0
-4650 4645 4644 0
-4650 4645 691 0
-4646 4651 0
-4645 -691 4651 0
-4651 4646 4645 0
-4651 4646 691 0
-4647 4652 0
-4646 -691 4652 0
-4652 4647 4646 0
-4652 4647 691 0
-4648 4653 0
-4647 -691 4653 0
-4653 4648 4647 0
-4653 4648 691 0
-4649 4654 0
-692 4654 0
-4654 4649 692 0
-4650 4655 0
-4649 -692 4655 0
-4655 4650 4649 0
-4655 4650 692 0
-4651 4656 0
-4650 -692 4656 0
-4656 4651 4650 0
-4656 4651 692 0
-4652 4657 0
-4651 -692 4657 0
-4657 4652 4651 0
-4657 4652 692 0
-4653 4658 0
-4652 -692 4658 0
-4658 4653 4652 0
-4658 4653 692 0
-4654 4659 0
-693 4659 0
-4659 4654 693 0
-4655 4660 0
-4654 -693 4660 0
-4660 4655 4654 0
-4660 4655 693 0
-4656 4661 0
-4655 -693 4661 0
-4661 4656 4655 0
-4661 4656 693 0
-4657 4662 0
-4656 -693 4662 0
-4662 4657 4656 0
-4662 4657 693 0
-4658 4663 0
-4657 -693 4663 0
-4663 4658 4657 0
-4663 4658 693 0
-4659 4664 0
-694 4664 0
-4664 4659 694 0
-4660 4665 0
-4659 -694 4665 0
-4665 4660 4659 0
-4665 4660 694 0
-4661 4666 0
-4660 -694 4666 0
-4666 4661 4660 0
-4666 4661 694 0
-4662 4667 0
-4661 -694 4667 0
-4667 4662 4661 0
-4667 4662 694 0
-4663 4668 0
-4662 -694 4668 0
-4668 4663 4662 0
-4668 4663 694 0
-4664 4669 0
-695 4669 0
-4669 4664 695 0
-4665 4670 0
-4664 -695 4670 0
-4670 4665 4664 0
-4670 4665 695 0
-4666 4671 0
-4665 -695 4671 0
-4671 4666 4665 0
-4671 4666 695 0
-4667 4672 0
-4666 -695 4672 0
-4672 4667 4666 0
-4672 4667 695 0
-4668 4673 0
-4667 -695 4673 0
-4673 4668 4667 0
-4673 4668 695 0
-4669 4674 0
-696 4674 0
-4674 4669 696 0
-4670 4675 0
-4669 -696 4675 0
-4675 4670 4669 0
-4675 4670 696 0
-4671 4676 0
-4670 -696 4676 0
-4676 4671 4670 0
-4676 4671 696 0
-4672 4677 0
-4671 -696 4677 0
-4677 4672 4671 0
-4677 4672 696 0
-4673 4678 0
-4672 -696 4678 0
-4678 4673 4672 0
-4678 4673 696 0
-4674 4679 0
-697 4679 0
-4679 4674 697 0
-4675 4680 0
-4674 -697 4680 0
-4680 4675 4674 0
-4680 4675 697 0
-4676 4681 0
-4675 -697 4681 0
-4681 4676 4675 0
-4681 4676 697 0
-4677 4682 0
-4676 -697 4682 0
-4682 4677 4676 0
-4682 4677 697 0
-4678 4683 0
-4677 -697 4683 0
-4683 4678 4677 0
-4683 4678 697 0
-4679 4684 0
-698 4684 0
-4684 4679 698 0
-4680 4685 0
-4679 -698 4685 0
-4685 4680 4679 0
-4685 4680 698 0
-4681 4686 0
-4680 -698 4686 0
-4686 4681 4680 0
-4686 4681 698 0
-4682 4687 0
-4681 -698 4687 0
-4687 4682 4681 0
-4687 4682 698 0
-4683 4688 0
-4682 -698 4688 0
-4688 4683 4682 0
-4688 4683 698 0
-4684 4689 0
-699 4689 0
-4689 4684 699 0
-4685 4690 0
-4684 -699 4690 0
-4690 4685 4684 0
-4690 4685 699 0
-4686 4691 0
-4685 -699 4691 0
-4691 4686 4685 0
-4691 4686 699 0
-4687 4692 0
-4686 -699 4692 0
-4692 4687 4686 0
-4692 4687 699 0
-4688 4693 0
-4687 -699 4693 0
-4693 4688 4687 0
-4693 4688 699 0
-4689 4694 0
-700 4694 0
-4694 4689 700 0
-4690 4695 0
-4689 -700 4695 0
-4695 4690 4689 0
-4695 4690 700 0
-4691 4696 0
-4690 -700 4696 0
-4696 4691 4690 0
-4696 4691 700 0
-4692 4697 0
-4691 -700 4697 0
-4697 4692 4691 0
-4697 4692 700 0
-4693 4698 0
-4692 -700 4698 0
-4698 4693 4692 0
-4698 4693 700 0
-4694 4699 0
-701 4699 0
-4699 4694 701 0
-4695 4700 0
-4694 -701 4700 0
-4700 4695 4694 0
-4700 4695 701 0
-4696 4701 0
-4695 -701 4701 0
-4701 4696 4695 0
-4701 4696 701 0
-4697 4702 0
-4696 -701 4702 0
-4702 4697 4696 0
-4702 4697 701 0
-4698 4703 0
-4697 -701 4703 0
-4703 4698 4697 0
-4703 4698 701 0
-4699 4704 0
-702 4704 0
-4704 4699 702 0
-4700 4705 0
-4699 -702 4705 0
-4705 4700 4699 0
-4705 4700 702 0
-4701 4706 0
-4700 -702 4706 0
-4706 4701 4700 0
-4706 4701 702 0
-4702 4707 0
-4701 -702 4707 0
-4707 4702 4701 0
-4707 4702 702 0
-4703 4708 0
-4702 -702 4708 0
-4708 4703 4702 0
-4708 4703 702 0
-4704 4709 0
-703 4709 0
-4709 4704 703 0
-4705 4710 0
-4704 -703 4710 0
-4710 4705 4704 0
-4710 4705 703 0
-4706 4711 0
-4705 -703 4711 0
-4711 4706 4705 0
-4711 4706 703 0
-4707 4712 0
-4706 -703 4712 0
-4712 4707 4706 0
-4712 4707 703 0
-4708 4713 0
-4707 -703 4713 0
-4713 4708 4707 0
-4713 4708 703 0
-4709 4714 0
-704 4714 0
-4714 4709 704 0
-4710 4715 0
-4709 -704 4715 0
-4715 4710 4709 0
-4715 4710 704 0
-4711 4716 0
-4710 -704 4716 0
-4716 4711 4710 0
-4716 4711 704 0
-4712 4717 0
-4711 -704 4717 0
-4717 4712 4711 0
-4717 4712 704 0
-4713 4718 0
-4712 -704 4718 0
-4718 4713 4712 0
-4718 4713 704 0
-4714 4719 0
-705 4719 0
-4719 4714 705 0
-4715 4720 0
-4714 -705 4720 0
-4720 4715 4714 0
-4720 4715 705 0
-4716 4721 0
-4715 -705 4721 0
-4721 4716 4715 0
-4721 4716 705 0
-4717 4722 0
-4716 -705 4722 0
-4722 4717 4716 0
-4722 4717 705 0
-4718 4723 0
-4717 -705 4723 0
-4723 4718 4717 0
-4723 4718 705 0
-4719 4724 0
-706 4724 0
-4724 4719 706 0
-4720 4725 0
-4719 -706 4725 0
-4725 4720 4719 0
-4725 4720 706 0
-4721 4726 0
-4720 -706 4726 0
-4726 4721 4720 0
-4726 4721 706 0
-4722 4727 0
-4721 -706 4727 0
-4727 4722 4721 0
-4727 4722 706 0
-4723 4728 0
-4722 -706 4728 0
-4728 4723 4722 0
-4728 4723 706 0
-4724 4729 0
-707 4729 0
-4729 4724 707 0
-4725 4730 0
-4724 -707 4730 0
-4730 4725 4724 0
-4730 4725 707 0
-4726 4731 0
-4725 -707 4731 0
-4731 4726 4725 0
-4731 4726 707 0
-4727 4732 0
-4726 -707 4732 0
-4732 4727 4726 0
-4732 4727 707 0
-4728 4733 0
-4727 -707 4733 0
-4733 4728 4727 0
-4733 4728 707 0
-4729 4734 0
-708 4734 0
-4734 4729 708 0
-4730 4735 0
-4729 -708 4735 0
-4735 4730 4729 0
-4735 4730 708 0
-4731 4736 0
-4730 -708 4736 0
-4736 4731 4730 0
-4736 4731 708 0
-4732 4737 0
-4731 -708 4737 0
-4737 4732 4731 0
-4737 4732 708 0
-4733 4738 0
-4732 -708 4738 0
-4738 4733 4732 0
-4738 4733 708 0
-4734 4739 0
-709 4739 0
-4739 4734 709 0
-4735 4740 0
-4734 -709 4740 0
-4740 4735 4734 0
-4740 4735 709 0
-4736 4741 0
-4735 -709 4741 0
-4741 4736 4735 0
-4741 4736 709 0
-4737 4742 0
-4736 -709 4742 0
-4742 4737 4736 0
-4742 4737 709 0
-4738 4743 0
-4737 -709 4743 0
-4743 4738 4737 0
-4743 4738 709 0
-4739 4744 0
-710 4744 0
-4744 4739 710 0
-4740 4745 0
-4739 -710 4745 0
-4745 4740 4739 0
-4745 4740 710 0
-4741 4746 0
-4740 -710 4746 0
-4746 4741 4740 0
-4746 4741 710 0
-4742 4747 0
-4741 -710 4747 0
-4747 4742 4741 0
-4747 4742 710 0
-4743 4748 0
-4742 -710 4748 0
-4748 4743 4742 0
-4748 4743 710 0
-4744 4749 0
-711 4749 0
-4749 4744 711 0
-4745 4750 0
-4744 -711 4750 0
-4750 4745 4744 0
-4750 4745 711 0
-4746 4751 0
-4745 -711 4751 0
-4751 4746 4745 0
-4751 4746 711 0
-4747 4752 0
-4746 -711 4752 0
-4752 4747 4746 0
-4752 4747 711 0
-4748 4753 0
-4747 -711 4753 0
-4753 4748 4747 0
-4753 4748 711 0
-4749 4754 0
-712 4754 0
-4754 4749 712 0
-4750 4755 0
-4749 -712 4755 0
-4755 4750 4749 0
-4755 4750 712 0
-4751 4756 0
-4750 -712 4756 0
-4756 4751 4750 0
-4756 4751 712 0
-4752 4757 0
-4751 -712 4757 0
-4757 4752 4751 0
-4757 4752 712 0
-4753 4758 0
-4752 -712 4758 0
-4758 4753 4752 0
-4758 4753 712 0
-4754 4759 0
-713 4759 0
-4759 4754 713 0
-4755 4760 0
-4754 -713 4760 0
-4760 4755 4754 0
-4760 4755 713 0
-4756 4761 0
-4755 -713 4761 0
-4761 4756 4755 0
-4761 4756 713 0
-4757 4762 0
-4756 -713 4762 0
-4762 4757 4756 0
-4762 4757 713 0
-4758 4763 0
-4757 -713 4763 0
-4763 4758 4757 0
-4763 4758 713 0
-4759 4764 0
-714 4764 0
-4764 4759 714 0
-4760 4765 0
-4759 -714 4765 0
-4765 4760 4759 0
-4765 4760 714 0
-4761 4766 0
-4760 -714 4766 0
-4766 4761 4760 0
-4766 4761 714 0
-4762 4767 0
-4761 -714 4767 0
-4767 4762 4761 0
-4767 4762 714 0
-4763 4768 0
-4762 -714 4768 0
-4768 4763 4762 0
-4768 4763 714 0
-4764 4769 0
-715 4769 0
-4769 4764 715 0
-4765 4770 0
-4764 -715 4770 0
-4770 4765 4764 0
-4770 4765 715 0
-4766 4771 0
-4765 -715 4771 0
-4771 4766 4765 0
-4771 4766 715 0
-4767 4772 0
-4766 -715 4772 0
-4772 4767 4766 0
-4772 4767 715 0
-4768 4773 0
-4767 -715 4773 0
-4773 4768 4767 0
-4773 4768 715 0
-4769 4774 0
-716 4774 0
-4774 4769 716 0
-4770 4775 0
-4769 -716 4775 0
-4775 4770 4769 0
-4775 4770 716 0
-4771 4776 0
-4770 -716 4776 0
-4776 4771 4770 0
-4776 4771 716 0
-4772 4777 0
-4771 -716 4777 0
-4777 4772 4771 0
-4777 4772 716 0
-4773 4778 0
-4772 -716 4778 0
-4778 4773 4772 0
-4778 4773 716 0
-4774 4779 0
-717 4779 0
-4779 4774 717 0
-4775 4780 0
-4774 -717 4780 0
-4780 4775 4774 0
-4780 4775 717 0
-4776 4781 0
-4775 -717 4781 0
-4781 4776 4775 0
-4781 4776 717 0
-4777 4782 0
-4776 -717 4782 0
-4782 4777 4776 0
-4782 4777 717 0
-4778 4783 0
-4777 -717 4783 0
-4783 4778 4777 0
-4783 4778 717 0
-4779 4784 0
-718 4784 0
-4784 4779 718 0
-4780 4785 0
-4779 -718 4785 0
-4785 4780 4779 0
-4785 4780 718 0
-4781 4786 0
-4780 -718 4786 0
-4786 4781 4780 0
-4786 4781 718 0
-4782 4787 0
-4781 -718 4787 0
-4787 4782 4781 0
-4787 4782 718 0
-4783 4788 0
-4782 -718 4788 0
-4788 4783 4782 0
-4788 4783 718 0
-4784 4789 0
-719 4789 0
-4789 4784 719 0
-4785 4790 0
-4784 -719 4790 0
-4790 4785 4784 0
-4790 4785 719 0
-4786 4791 0
-4785 -719 4791 0
-4791 4786 4785 0
-4791 4786 719 0
-4787 4792 0
-4786 -719 4792 0
-4792 4787 4786 0
-4792 4787 719 0
-4788 4793 0
-4787 -719 4793 0
-4793 4788 4787 0
-4793 4788 719 0
-4789 4794 0
-720 4794 0
-4794 4789 720 0
-4790 4795 0
-4789 -720 4795 0
-4795 4790 4789 0
-4795 4790 720 0
-4791 4796 0
-4790 -720 4796 0
-4796 4791 4790 0
-4796 4791 720 0
-4792 4797 0
-4791 -720 4797 0
-4797 4792 4791 0
-4797 4792 720 0
-4793 4798 0
-4792 -720 4798 0
-4798 4793 4792 0
-4798 4793 720 0
-4794 4799 0
-721 4799 0
-4799 4794 721 0
-4795 4800 0
-4794 -721 4800 0
-4800 4795 4794 0
-4800 4795 721 0
-4796 4801 0
-4795 -721 4801 0
-4801 4796 4795 0
-4801 4796 721 0
-4797 4802 0
-4796 -721 4802 0
-4802 4797 4796 0
-4802 4797 721 0
-4798 4803 0
-4797 -721 4803 0
-4803 4798 4797 0
-4803 4798 721 0
-4799 4804 0
-722 4804 0
-4804 4799 722 0
-4800 4805 0
-4799 -722 4805 0
-4805 4800 4799 0
-4805 4800 722 0
-4801 4806 0
-4800 -722 4806 0
-4806 4801 4800 0
-4806 4801 722 0
-4802 4807 0
-4801 -722 4807 0
-4807 4802 4801 0
-4807 4802 722 0
-4803 4808 0
-4802 -722 4808 0
-4808 4803 4802 0
-4808 4803 722 0
-4804 4809 0
-723 4809 0
-4809 4804 723 0
-4805 4810 0
-4804 -723 4810 0
-4810 4805 4804 0
-4810 4805 723 0
-4806 4811 0
-4805 -723 4811 0
-4811 4806 4805 0
-4811 4806 723 0
-4807 4812 0
-4806 -723 4812 0
-4812 4807 4806 0
-4812 4807 723 0
-4808 4813 0
-4807 -723 4813 0
-4813 4808 4807 0
-4813 4808 723 0
-4809 4814 0
-724 4814 0
-4814 4809 724 0
-4810 4815 0
-4809 -724 4815 0
-4815 4810 4809 0
-4815 4810 724 0
-4811 4816 0
-4810 -724 4816 0
-4816 4811 4810 0
-4816 4811 724 0
-4812 4817 0
-4811 -724 4817 0
-4817 4812 4811 0
-4817 4812 724 0
-4813 4818 0
-4812 -724 4818 0
-4818 4813 4812 0
-4818 4813 724 0
-4814 4819 0
-725 4819 0
-4819 4814 725 0
-4815 4820 0
-4814 -725 4820 0
-4820 4815 4814 0
-4820 4815 725 0
-4816 4821 0
-4815 -725 4821 0
-4821 4816 4815 0
-4821 4816 725 0
-4817 4822 0
-4816 -725 4822 0
-4822 4817 4816 0
-4822 4817 725 0
-4818 4823 0
-4817 -725 4823 0
-4823 4818 4817 0
-4823 4818 725 0
-4819 4824 0
-726 4824 0
-4824 4819 726 0
-4820 4825 0
-4819 -726 4825 0
-4825 4820 4819 0
-4825 4820 726 0
-4821 4826 0
-4820 -726 4826 0
-4826 4821 4820 0
-4826 4821 726 0
-4822 4827 0
-4821 -726 4827 0
-4827 4822 4821 0
-4827 4822 726 0
-4823 4828 0
-4822 -726 4828 0
-4828 4823 4822 0
-4828 4823 726 0
-4824 4829 0
-727 4829 0
-4829 4824 727 0
-4825 4830 0
-4824 -727 4830 0
-4830 4825 4824 0
-4830 4825 727 0
-4826 4831 0
-4825 -727 4831 0
-4831 4826 4825 0
-4831 4826 727 0
-4827 4832 0
-4826 -727 4832 0
-4832 4827 4826 0
-4832 4827 727 0
-4828 4833 0
-4827 -727 4833 0
-4833 4828 4827 0
-4833 4828 727 0
-4829 4834 0
-728 4834 0
-4834 4829 728 0
-4830 4835 0
-4829 -728 4835 0
-4835 4830 4829 0
-4835 4830 728 0
-4831 4836 0
-4830 -728 4836 0
-4836 4831 4830 0
-4836 4831 728 0
-4832 4837 0
-4831 -728 4837 0
-4837 4832 4831 0
-4837 4832 728 0
-4833 4838 0
-4832 -728 4838 0
-4838 4833 4832 0
-4838 4833 728 0
-4834 4839 0
-729 4839 0
-4839 4834 729 0
-4835 4840 0
-4834 -729 4840 0
-4840 4835 4834 0
-4840 4835 729 0
-4836 4841 0
-4835 -729 4841 0
-4841 4836 4835 0
-4841 4836 729 0
-4837 4842 0
-4836 -729 4842 0
-4842 4837 4836 0
-4842 4837 729 0
-4838 4843 0
-4837 -729 4843 0
-4843 4838 4837 0
-4843 4838 729 0
-4839 4844 0
-730 4844 0
-4844 4839 730 0
-4840 4845 0
-4839 -730 4845 0
-4845 4840 4839 0
-4845 4840 730 0
-4841 4846 0
-4840 -730 4846 0
-4846 4841 4840 0
-4846 4841 730 0
-4842 4847 0
-4841 -730 4847 0
-4847 4842 4841 0
-4847 4842 730 0
-4843 4848 0
-4842 -730 4848 0
-4848 4843 4842 0
-4848 4843 730 0
-4844 4849 0
-731 4849 0
-4849 4844 731 0
-4845 4850 0
-4844 -731 4850 0
-4850 4845 4844 0
-4850 4845 731 0
-4846 4851 0
-4845 -731 4851 0
-4851 4846 4845 0
-4851 4846 731 0
-4847 4852 0
-4846 -731 4852 0
-4852 4847 4846 0
-4852 4847 731 0
-4848 4853 0
-4847 -731 4853 0
-4853 4848 4847 0
-4853 4848 731 0
-4849 4854 0
-732 4854 0
-4854 4849 732 0
-4850 4855 0
-4849 -732 4855 0
-4855 4850 4849 0
-4855 4850 732 0
-4851 4856 0
-4850 -732 4856 0
-4856 4851 4850 0
-4856 4851 732 0
-4852 4857 0
-4851 -732 4857 0
-4857 4852 4851 0
-4857 4852 732 0
-4853 4858 0
-4852 -732 4858 0
-4858 4853 4852 0
-4858 4853 732 0
-4854 4859 0
-733 4859 0
-4859 4854 733 0
-4855 4860 0
-4854 -733 4860 0
-4860 4855 4854 0
-4860 4855 733 0
-4856 4861 0
-4855 -733 4861 0
-4861 4856 4855 0
-4861 4856 733 0
-4857 4862 0
-4856 -733 4862 0
-4862 4857 4856 0
-4862 4857 733 0
-4858 4863 0
-4857 -733 4863 0
-4863 4858 4857 0
-4863 4858 733 0
-4859 4864 0
-734 4864 0
-4864 4859 734 0
-4860 4865 0
-4859 -734 4865 0
-4865 4860 4859 0
-4865 4860 734 0
-4861 4866 0
-4860 -734 4866 0
-4866 4861 4860 0
-4866 4861 734 0
-4862 4867 0
-4861 -734 4867 0
-4867 4862 4861 0
-4867 4862 734 0
-4863 4868 0
-4862 -734 4868 0
-4868 4863 4862 0
-4868 4863 734 0
-4864 4869 0
-735 4869 0
-4869 4864 735 0
-4865 4870 0
-4864 -735 4870 0
-4870 4865 4864 0
-4870 4865 735 0
-4866 4871 0
-4865 -735 4871 0
-4871 4866 4865 0
-4871 4866 735 0
-4867 4872 0
-4866 -735 4872 0
-4872 4867 4866 0
-4872 4867 735 0
-4868 4873 0
-4867 -735 4873 0
-4873 4868 4867 0
-4873 4868 735 0
-4869 4874 0
-736 4874 0
-4874 4869 736 0
-4870 4875 0
-4869 -736 4875 0
-4875 4870 4869 0
-4875 4870 736 0
-4871 4876 0
-4870 -736 4876 0
-4876 4871 4870 0
-4876 4871 736 0
-4872 4877 0
-4871 -736 4877 0
-4877 4872 4871 0
-4877 4872 736 0
-4873 4878 0
-4872 -736 4878 0
-4878 4873 4872 0
-4878 4873 736 0
-4874 4879 0
-737 4879 0
-4879 4874 737 0
-4875 4880 0
-4874 -737 4880 0
-4880 4875 4874 0
-4880 4875 737 0
-4876 4881 0
-4875 -737 4881 0
-4881 4876 4875 0
-4881 4876 737 0
-4877 4882 0
-4876 -737 4882 0
-4882 4877 4876 0
-4882 4877 737 0
-4878 4883 0
-4877 -737 4883 0
-4883 4878 4877 0
-4883 4878 737 0
-4879 4884 0
-738 4884 0
-4884 4879 738 0
-4880 4885 0
-4879 -738 4885 0
-4885 4880 4879 0
-4885 4880 738 0
-4881 4886 0
-4880 -738 4886 0
-4886 4881 4880 0
-4886 4881 738 0
-4882 4887 0
-4881 -738 4887 0
-4887 4882 4881 0
-4887 4882 738 0
-4883 4888 0
-4882 -738 4888 0
-4888 4883 4882 0
-4888 4883 738 0
-4884 4889 0
-739 4889 0
-4889 4884 739 0
-4885 4890 0
-4884 -739 4890 0
-4890 4885 4884 0
-4890 4885 739 0
-4886 4891 0
-4885 -739 4891 0
-4891 4886 4885 0
-4891 4886 739 0
-4887 4892 0
-4886 -739 4892 0
-4892 4887 4886 0
-4892 4887 739 0
-4888 4893 0
-4887 -739 4893 0
-4893 4888 4887 0
-4893 4888 739 0
-4889 4894 0
-740 4894 0
-4894 4889 740 0
-4890 4895 0
-4889 -740 4895 0
-4895 4890 4889 0
-4895 4890 740 0
-4891 4896 0
-4890 -740 4896 0
-4896 4891 4890 0
-4896 4891 740 0
-4892 4897 0
-4891 -740 4897 0
-4897 4892 4891 0
-4897 4892 740 0
-4893 4898 0
-4892 -740 4898 0
-4898 4893 4892 0
-4898 4893 740 0
-4894 4899 0
-741 4899 0
-4899 4894 741 0
-4895 4900 0
-4894 -741 4900 0
-4900 4895 4894 0
-4900 4895 741 0
-4896 4901 0
-4895 -741 4901 0
-4901 4896 4895 0
-4901 4896 741 0
-4897 4902 0
-4896 -741 4902 0
-4902 4897 4896 0
-4902 4897 741 0
-4898 4903 0
-4897 -741 4903 0
-4903 4898 4897 0
-4903 4898 741 0
-4899 4904 0
-742 4904 0
-4904 4899 742 0
-4900 4905 0
-4899 -742 4905 0
-4905 4900 4899 0
-4905 4900 742 0
-4901 4906 0
-4900 -742 4906 0
-4906 4901 4900 0
-4906 4901 742 0
-4902 4907 0
-4901 -742 4907 0
-4907 4902 4901 0
-4907 4902 742 0
-4903 4908 0
-4902 -742 4908 0
-4908 4903 4902 0
-4908 4903 742 0
-4904 4909 0
-743 4909 0
-4909 4904 743 0
-4905 4910 0
-4904 -743 4910 0
-4910 4905 4904 0
-4910 4905 743 0
-4906 4911 0
-4905 -743 4911 0
-4911 4906 4905 0
-4911 4906 743 0
-4907 4912 0
-4906 -743 4912 0
-4912 4907 4906 0
-4912 4907 743 0
-4908 4913 0
-4907 -743 4913 0
-4913 4908 4907 0
-4913 4908 743 0
-4909 4914 0
-744 4914 0
-4914 4909 744 0
-4910 4915 0
-4909 -744 4915 0
-4915 4910 4909 0
-4915 4910 744 0
-4911 4916 0
-4910 -744 4916 0
-4916 4911 4910 0
-4916 4911 744 0
-4912 4917 0
-4911 -744 4917 0
-4917 4912 4911 0
-4917 4912 744 0
-4913 4918 0
-4912 -744 4918 0
-4918 4913 4912 0
-4918 4913 744 0
-4914 4919 0
-745 4919 0
-4919 4914 745 0
-4915 4920 0
-4914 -745 4920 0
-4920 4915 4914 0
-4920 4915 745 0
-4916 4921 0
-4915 -745 4921 0
-4921 4916 4915 0
-4921 4916 745 0
-4917 4922 0
-4916 -745 4922 0
-4922 4917 4916 0
-4922 4917 745 0
-4918 4923 0
-4917 -745 4923 0
-4923 4918 4917 0
-4923 4918 745 0
-4919 4924 0
-746 4924 0
-4924 4919 746 0
-4920 4925 0
-4919 -746 4925 0
-4925 4920 4919 0
-4925 4920 746 0
-4921 4926 0
-4920 -746 4926 0
-4926 4921 4920 0
-4926 4921 746 0
-4922 4927 0
-4921 -746 4927 0
-4927 4922 4921 0
-4927 4922 746 0
-4923 4928 0
-4922 -746 4928 0
-4928 4923 4922 0
-4928 4923 746 0
-4924 4929 0
-747 4929 0
-4929 4924 747 0
-4925 4930 0
-4924 -747 4930 0
-4930 4925 4924 0
-4930 4925 747 0
-4926 4931 0
-4925 -747 4931 0
-4931 4926 4925 0
-4931 4926 747 0
-4927 4932 0
-4926 -747 4932 0
-4932 4927 4926 0
-4932 4927 747 0
-4928 4933 0
-4927 -747 4933 0
-4933 4928 4927 0
-4933 4928 747 0
-4929 4934 0
-748 4934 0
-4934 4929 748 0
-4930 4935 0
-4929 -748 4935 0
-4935 4930 4929 0
-4935 4930 748 0
-4931 4936 0
-4930 -748 4936 0
-4936 4931 4930 0
-4936 4931 748 0
-4932 4937 0
-4931 -748 4937 0
-4937 4932 4931 0
-4937 4932 748 0
-4933 4938 0
-4932 -748 4938 0
-4938 4933 4932 0
-4938 4933 748 0
-4934 4939 0
-749 4939 0
-4939 4934 749 0
-4935 4940 0
-4934 -749 4940 0
-4940 4935 4934 0
-4940 4935 749 0
-4936 4941 0
-4935 -749 4941 0
-4941 4936 4935 0
-4941 4936 749 0
-4937 4942 0
-4936 -749 4942 0
-4942 4937 4936 0
-4942 4937 749 0
-4938 4943 0
-4937 -749 4943 0
-4943 4938 4937 0
-4943 4938 749 0
-4939 4944 0
-750 4944 0
-4944 4939 750 0
-4940 4945 0
-4939 -750 4945 0
-4945 4940 4939 0
-4945 4940 750 0
-4941 4946 0
-4940 -750 4946 0
-4946 4941 4940 0
-4946 4941 750 0
-4942 4947 0
-4941 -750 4947 0
-4947 4942 4941 0
-4947 4942 750 0
-4943 4948 0
-4942 -750 4948 0
-4948 4943 4942 0
-4948 4943 750 0
-4944 4949 0
-751 4949 0
-4949 4944 751 0
-4945 4950 0
-4944 -751 4950 0
-4950 4945 4944 0
-4950 4945 751 0
-4946 4951 0
-4945 -751 4951 0
-4951 4946 4945 0
-4951 4946 751 0
-4947 4952 0
-4946 -751 4952 0
-4952 4947 4946 0
-4952 4947 751 0
-4948 4953 0
-4947 -751 4953 0
-4953 4948 4947 0
-4953 4948 751 0
-4949 4954 0
-752 4954 0
-4954 4949 752 0
-4950 4955 0
-4949 -752 4955 0
-4955 4950 4949 0
-4955 4950 752 0
-4951 4956 0
-4950 -752 4956 0
-4956 4951 4950 0
-4956 4951 752 0
-4952 4957 0
-4951 -752 4957 0
-4957 4952 4951 0
-4957 4952 752 0
-4953 4958 0
-4952 -752 4958 0
-4958 4953 4952 0
-4958 4953 752 0
-4954 4959 0
-753 4959 0
-4959 4954 753 0
-4955 4960 0
-4954 -753 4960 0
-4960 4955 4954 0
-4960 4955 753 0
-4956 4961 0
-4955 -753 4961 0
-4961 4956 4955 0
-4961 4956 753 0
-4957 4962 0
-4956 -753 4962 0
-4962 4957 4956 0
-4962 4957 753 0
-4958 4963 0
-4957 -753 4963 0
-4963 4958 4957 0
-4963 4958 753 0
-4959 4964 0
-754 4964 0
-4964 4959 754 0
-4960 4965 0
-4959 -754 4965 0
-4965 4960 4959 0
-4965 4960 754 0
-4961 4966 0
-4960 -754 4966 0
-4966 4961 4960 0
-4966 4961 754 0
-4962 4967 0
-4961 -754 4967 0
-4967 4962 4961 0
-4967 4962 754 0
-4963 4968 0
-4962 -754 4968 0
-4968 4963 4962 0
-4968 4963 754 0
-4964 4969 0
-755 4969 0
-4969 4964 755 0
-4965 4970 0
-4964 -755 4970 0
-4970 4965 4964 0
-4970 4965 755 0
-4966 4971 0
-4965 -755 4971 0
-4971 4966 4965 0
-4971 4966 755 0
-4967 4972 0
-4966 -755 4972 0
-4972 4967 4966 0
-4972 4967 755 0
-4968 4973 0
-4967 -755 4973 0
-4973 4968 4967 0
-4973 4968 755 0
-4969 4974 0
-756 4974 0
-4974 4969 756 0
-4970 4975 0
-4969 -756 4975 0
-4975 4970 4969 0
-4975 4970 756 0
-4971 4976 0
-4970 -756 4976 0
-4976 4971 4970 0
-4976 4971 756 0
-4972 4977 0
-4971 -756 4977 0
-4977 4972 4971 0
-4977 4972 756 0
-4973 4978 0
-4972 -756 4978 0
-4978 4973 4972 0
-4978 4973 756 0
-4974 4979 0
-757 4979 0
-4979 4974 757 0
-4975 4980 0
-4974 -757 4980 0
-4980 4975 4974 0
-4980 4975 757 0
-4976 4981 0
-4975 -757 4981 0
-4981 4976 4975 0
-4981 4976 757 0
-4977 4982 0
-4976 -757 4982 0
-4982 4977 4976 0
-4982 4977 757 0
-4978 4983 0
-4977 -757 4983 0
-4983 4978 4977 0
-4983 4978 757 0
-4979 4984 0
-758 4984 0
-4984 4979 758 0
-4980 4985 0
-4979 -758 4985 0
-4985 4980 4979 0
-4985 4980 758 0
-4981 4986 0
-4980 -758 4986 0
-4986 4981 4980 0
-4986 4981 758 0
-4982 4987 0
-4981 -758 4987 0
-4987 4982 4981 0
-4987 4982 758 0
-4983 4988 0
-4982 -758 4988 0
-4988 4983 4982 0
-4988 4983 758 0
-4984 4989 0
-759 4989 0
-4989 4984 759 0
-4985 4990 0
-4984 -759 4990 0
-4990 4985 4984 0
-4990 4985 759 0
-4986 4991 0
-4985 -759 4991 0
-4991 4986 4985 0
-4991 4986 759 0
-4987 4992 0
-4986 -759 4992 0
-4992 4987 4986 0
-4992 4987 759 0
-4988 4993 0
-4987 -759 4993 0
-4993 4988 4987 0
-4993 4988 759 0
-4989 4994 0
-760 4994 0
-4994 4989 760 0
-4990 4995 0
-4989 -760 4995 0
-4995 4990 4989 0
-4995 4990 760 0
-4991 4996 0
-4990 -760 4996 0
-4996 4991 4990 0
-4996 4991 760 0
-4992 4997 0
-4991 -760 4997 0
-4997 4992 4991 0
-4997 4992 760 0
-4993 4998 0
-4992 -760 4998 0
-4998 4993 4992 0
-4998 4993 760 0
-4994 4999 0
-761 4999 0
-4999 4994 761 0
-4995 5000 0
-4994 -761 5000 0
-5000 4995 4994 0
-5000 4995 761 0
-4996 5001 0
-4995 -761 5001 0
-5001 4996 4995 0
-5001 4996 761 0
-4997 5002 0
-4996 -761 5002 0
-5002 4997 4996 0
-5002 4997 761 0
-4998 5003 0
-4997 -761 5003 0
-5003 4998 4997 0
-5003 4998 761 0
-4999 5004 0
-762 5004 0
-5004 4999 762 0
-5000 5005 0
-4999 -762 5005 0
-5005 5000 4999 0
-5005 5000 762 0
-5001 5006 0
-5000 -762 5006 0
-5006 5001 5000 0
-5006 5001 762 0
-5002 5007 0
-5001 -762 5007 0
-5007 5002 5001 0
-5007 5002 762 0
-5003 5008 0
-5002 -762 5008 0
-5008 5003 5002 0
-5008 5003 762 0
-5004 5009 0
-763 5009 0
-5009 5004 763 0
-5005 5010 0
-5004 -763 5010 0
-5010 5005 5004 0
-5010 5005 763 0
-5006 5011 0
-5005 -763 5011 0
-5011 5006 5005 0
-5011 5006 763 0
-5007 5012 0
-5006 -763 5012 0
-5012 5007 5006 0
-5012 5007 763 0
-5008 5013 0
-5007 -763 5013 0
-5013 5008 5007 0
-5013 5008 763 0
-5009 5014 0
-764 5014 0
-5014 5009 764 0
-5010 5015 0
-5009 -764 5015 0
-5015 5010 5009 0
-5015 5010 764 0
-5011 5016 0
-5010 -764 5016 0
-5016 5011 5010 0
-5016 5011 764 0
-5012 5017 0
-5011 -764 5017 0
-5017 5012 5011 0
-5017 5012 764 0
-5013 5018 0
-5012 -764 5018 0
-5018 5013 5012 0
-5018 5013 764 0
-5014 5019 0
-765 5019 0
-5019 5014 765 0
-5015 5020 0
-5014 -765 5020 0
-5020 5015 5014 0
-5020 5015 765 0
-5016 5021 0
-5015 -765 5021 0
-5021 5016 5015 0
-5021 5016 765 0
-5017 5022 0
-5016 -765 5022 0
-5022 5017 5016 0
-5022 5017 765 0
-5018 5023 0
-5017 -765 5023 0
-5023 5018 5017 0
-5023 5018 765 0
-5019 5024 0
-766 5024 0
-5024 5019 766 0
-5020 5025 0
-5019 -766 5025 0
-5025 5020 5019 0
-5025 5020 766 0
-5021 5026 0
-5020 -766 5026 0
-5026 5021 5020 0
-5026 5021 766 0
-5022 5027 0
-5021 -766 5027 0
-5027 5022 5021 0
-5027 5022 766 0
-5023 5028 0
-5022 -766 5028 0
-5028 5023 5022 0
-5028 5023 766 0
-5024 5029 0
-767 5029 0
-5029 5024 767 0
-5025 5030 0
-5024 -767 5030 0
-5030 5025 5024 0
-5030 5025 767 0
-5026 5031 0
-5025 -767 5031 0
-5031 5026 5025 0
-5031 5026 767 0
-5027 5032 0
-5026 -767 5032 0
-5032 5027 5026 0
-5032 5027 767 0
-5028 5033 0
-5027 -767 5033 0
-5033 5028 5027 0
-5033 5028 767 0
-5029 5034 0
-768 5034 0
-5034 5029 768 0
-5030 5035 0
-5029 -768 5035 0
-5035 5030 5029 0
-5035 5030 768 0
-5031 5036 0
-5030 -768 5036 0
-5036 5031 5030 0
-5036 5031 768 0
-5032 5037 0
-5031 -768 5037 0
-5037 5032 5031 0
-5037 5032 768 0
-5033 5038 0
-5032 -768 5038 0
-5038 5033 5032 0
-5038 5033 768 0
-5034 5039 0
-769 5039 0
-5039 5034 769 0
-5035 5040 0
-5034 -769 5040 0
-5040 5035 5034 0
-5040 5035 769 0
-5036 5041 0
-5035 -769 5041 0
-5041 5036 5035 0
-5041 5036 769 0
-5037 5042 0
-5036 -769 5042 0
-5042 5037 5036 0
-5042 5037 769 0
-5038 5043 0
-5037 -769 5043 0
-5043 5038 5037 0
-5043 5038 769 0
-5039 5044 0
-770 5044 0
-5044 5039 770 0
-5040 5045 0
-5039 -770 5045 0
-5045 5040 5039 0
-5045 5040 770 0
-5041 5046 0
-5040 -770 5046 0
-5046 5041 5040 0
-5046 5041 770 0
-5042 5047 0
-5041 -770 5047 0
-5047 5042 5041 0
-5047 5042 770 0
-5043 5048 0
-5042 -770 5048 0
-5048 5043 5042 0
-5048 5043 770 0
-5044 5049 0
-771 5049 0
-5049 5044 771 0
-5045 5050 0
-5044 -771 5050 0
-5050 5045 5044 0
-5050 5045 771 0
-5046 5051 0
-5045 -771 5051 0
-5051 5046 5045 0
-5051 5046 771 0
-5047 5052 0
-5046 -771 5052 0
-5052 5047 5046 0
-5052 5047 771 0
-5048 5053 0
-5047 -771 5053 0
-5053 5048 5047 0
-5053 5048 771 0
-5049 5054 0
-772 5054 0
-5054 5049 772 0
-5050 5055 0
-5049 -772 5055 0
-5055 5050 5049 0
-5055 5050 772 0
-5051 5056 0
-5050 -772 5056 0
-5056 5051 5050 0
-5056 5051 772 0
-5052 5057 0
-5051 -772 5057 0
-5057 5052 5051 0
-5057 5052 772 0
-5053 5058 0
-5052 -772 5058 0
-5058 5053 5052 0
-5058 5053 772 0
-5054 5059 0
-773 5059 0
-5059 5054 773 0
-5055 5060 0
-5054 -773 5060 0
-5060 5055 5054 0
-5060 5055 773 0
-5056 5061 0
-5055 -773 5061 0
-5061 5056 5055 0
-5061 5056 773 0
-5057 5062 0
-5056 -773 5062 0
-5062 5057 5056 0
-5062 5057 773 0
-5058 5063 0
-5057 -773 5063 0
-5063 5058 5057 0
-5063 5058 773 0
-5059 5064 0
-774 5064 0
-5064 5059 774 0
-5060 5065 0
-5059 -774 5065 0
-5065 5060 5059 0
-5065 5060 774 0
-5061 5066 0
-5060 -774 5066 0
-5066 5061 5060 0
-5066 5061 774 0
-5062 5067 0
-5061 -774 5067 0
-5067 5062 5061 0
-5067 5062 774 0
-5063 5068 0
-5062 -774 5068 0
-5068 5063 5062 0
-5068 5063 774 0
-5064 5069 0
-775 5069 0
-5069 5064 775 0
-5065 5070 0
-5064 -775 5070 0
-5070 5065 5064 0
-5070 5065 775 0
-5066 5071 0
-5065 -775 5071 0
-5071 5066 5065 0
-5071 5066 775 0
-5067 5072 0
-5066 -775 5072 0
-5072 5067 5066 0
-5072 5067 775 0
-5068 5073 0
-5067 -775 5073 0
-5073 5068 5067 0
-5073 5068 775 0
-5069 5074 0
-776 5074 0
-5074 5069 776 0
-5070 5075 0
-5069 -776 5075 0
-5075 5070 5069 0
-5075 5070 776 0
-5071 5076 0
-5070 -776 5076 0
-5076 5071 5070 0
-5076 5071 776 0
-5072 5077 0
-5071 -776 5077 0
-5077 5072 5071 0
-5077 5072 776 0
-5073 5078 0
-5072 -776 5078 0
-5078 5073 5072 0
-5078 5073 776 0
-5074 5079 0
-777 5079 0
-5079 5074 777 0
-5075 5080 0
-5074 -777 5080 0
-5080 5075 5074 0
-5080 5075 777 0
-5076 5081 0
-5075 -777 5081 0
-5081 5076 5075 0
-5081 5076 777 0
-5077 5082 0
-5076 -777 5082 0
-5082 5077 5076 0
-5082 5077 777 0
-5078 5083 0
-5077 -777 5083 0
-5083 5078 5077 0
-5083 5078 777 0
-5079 5084 0
-778 5084 0
-5084 5079 778 0
-5080 5085 0
-5079 -778 5085 0
-5085 5080 5079 0
-5085 5080 778 0
-5081 5086 0
-5080 -778 5086 0
-5086 5081 5080 0
-5086 5081 778 0
-5082 5087 0
-5081 -778 5087 0
-5087 5082 5081 0
-5087 5082 778 0
-5083 5088 0
-5082 -778 5088 0
-5088 5083 5082 0
-5088 5083 778 0
-5084 5089 0
-779 5089 0
-5089 5084 779 0
-5085 5090 0
-5084 -779 5090 0
-5090 5085 5084 0
-5090 5085 779 0
-5086 5091 0
-5085 -779 5091 0
-5091 5086 5085 0
-5091 5086 779 0
-5087 5092 0
-5086 -779 5092 0
-5092 5087 5086 0
-5092 5087 779 0
-5088 5093 0
-5087 -779 5093 0
-5093 5088 5087 0
-5093 5088 779 0
-5089 5094 0
-780 5094 0
-5094 5089 780 0
-5090 5095 0
-5089 -780 5095 0
-5095 5090 5089 0
-5095 5090 780 0
-5091 5096 0
-5090 -780 5096 0
-5096 5091 5090 0
-5096 5091 780 0
-5092 5097 0
-5091 -780 5097 0
-5097 5092 5091 0
-5097 5092 780 0
-5093 5098 0
-5092 -780 5098 0
-5098 5093 5092 0
-5098 5093 780 0
-5094 5099 0
-781 5099 0
-5099 5094 781 0
-5095 5100 0
-5094 -781 5100 0
-5100 5095 5094 0
-5100 5095 781 0
-5096 5101 0
-5095 -781 5101 0
-5101 5096 5095 0
-5101 5096 781 0
-5097 5102 0
-5096 -781 5102 0
-5102 5097 5096 0
-5102 5097 781 0
-5098 5103 0
-5097 -781 5103 0
-5103 5098 5097 0
-5103 5098 781 0
-5099 5104 0
-782 5104 0
-5104 5099 782 0
-5100 5105 0
-5099 -782 5105 0
-5105 5100 5099 0
-5105 5100 782 0
-5101 5106 0
-5100 -782 5106 0
-5106 5101 5100 0
-5106 5101 782 0
-5102 5107 0
-5101 -782 5107 0
-5107 5102 5101 0
-5107 5102 782 0
-5103 5108 0
-5102 -782 5108 0
-5108 5103 5102 0
-5108 5103 782 0
-5104 5109 0
-783 5109 0
-5109 5104 783 0
-5105 5110 0
-5104 -783 5110 0
-5110 5105 5104 0
-5110 5105 783 0
-5106 5111 0
-5105 -783 5111 0
-5111 5106 5105 0
-5111 5106 783 0
-5107 5112 0
-5106 -783 5112 0
-5112 5107 5106 0
-5112 5107 783 0
-5108 5113 0
-5107 -783 5113 0
-5113 5108 5107 0
-5113 5108 783 0
-5109 5114 0
-784 5114 0
-5114 5109 784 0
-5110 5115 0
-5109 -784 5115 0
-5115 5110 5109 0
-5115 5110 784 0
-5111 5116 0
-5110 -784 5116 0
-5116 5111 5110 0
-5116 5111 784 0
-5112 5117 0
-5111 -784 5117 0
-5117 5112 5111 0
-5117 5112 784 0
-5113 5118 0
-5112 -784 5118 0
-5118 5113 5112 0
-5118 5113 784 0
-5114 5119 0
-785 5119 0
-5119 5114 785 0
-5115 5120 0
-5114 -785 5120 0
-5120 5115 5114 0
-5120 5115 785 0
-5116 5121 0
-5115 -785 5121 0
-5121 5116 5115 0
-5121 5116 785 0
-5117 5122 0
-5116 -785 5122 0
-5122 5117 5116 0
-5122 5117 785 0
-5118 5123 0
-5117 -785 5123 0
-5123 5118 5117 0
-5123 5118 785 0
-5119 5124 0
-786 5124 0
-5124 5119 786 0
-5120 5125 0
-5119 -786 5125 0
-5125 5120 5119 0
-5125 5120 786 0
-5121 5126 0
-5120 -786 5126 0
-5126 5121 5120 0
-5126 5121 786 0
-5122 5127 0
-5121 -786 5127 0
-5127 5122 5121 0
-5127 5122 786 0
-5123 5128 0
-5122 -786 5128 0
-5128 5123 5122 0
-5128 5123 786 0
-5124 5129 0
-787 5129 0
-5129 5124 787 0
-5125 5130 0
-5124 -787 5130 0
-5130 5125 5124 0
-5130 5125 787 0
-5126 5131 0
-5125 -787 5131 0
-5131 5126 5125 0
-5131 5126 787 0
-5127 5132 0
-5126 -787 5132 0
-5132 5127 5126 0
-5132 5127 787 0
-5128 5133 0
-5127 -787 5133 0
-5133 5128 5127 0
-5133 5128 787 0
-5129 5134 0
-788 5134 0
-5134 5129 788 0
-5130 5135 0
-5129 -788 5135 0
-5135 5130 5129 0
-5135 5130 788 0
-5131 5136 0
-5130 -788 5136 0
-5136 5131 5130 0
-5136 5131 788 0
-5132 5137 0
-5131 -788 5137 0
-5137 5132 5131 0
-5137 5132 788 0
-5133 5138 0
-5132 -788 5138 0
-5138 5133 5132 0
-5138 5133 788 0
-5134 5139 0
-789 5139 0
-5139 5134 789 0
-5135 5140 0
-5134 -789 5140 0
-5140 5135 5134 0
-5140 5135 789 0
-5136 5141 0
-5135 -789 5141 0
-5141 5136 5135 0
-5141 5136 789 0
-5137 5142 0
-5136 -789 5142 0
-5142 5137 5136 0
-5142 5137 789 0
-5138 5143 0
-5137 -789 5143 0
-5143 5138 5137 0
-5143 5138 789 0
-5139 5144 0
-790 5144 0
-5144 5139 790 0
-5140 5145 0
-5139 -790 5145 0
-5145 5140 5139 0
-5145 5140 790 0
-5141 5146 0
-5140 -790 5146 0
-5146 5141 5140 0
-5146 5141 790 0
-5142 5147 0
-5141 -790 5147 0
-5147 5142 5141 0
-5147 5142 790 0
-5143 5148 0
-5142 -790 5148 0
-5148 5143 5142 0
-5148 5143 790 0
-5144 5149 0
-791 5149 0
-5149 5144 791 0
-5145 5150 0
-5144 -791 5150 0
-5150 5145 5144 0
-5150 5145 791 0
-5146 5151 0
-5145 -791 5151 0
-5151 5146 5145 0
-5151 5146 791 0
-5147 5152 0
-5146 -791 5152 0
-5152 5147 5146 0
-5152 5147 791 0
-5148 5153 0
-5147 -791 5153 0
-5153 5148 5147 0
-5153 5148 791 0
-5149 5154 0
-792 5154 0
-5154 5149 792 0
-5150 5155 0
-5149 -792 5155 0
-5155 5150 5149 0
-5155 5150 792 0
-5151 5156 0
-5150 -792 5156 0
-5156 5151 5150 0
-5156 5151 792 0
-5152 5157 0
-5151 -792 5157 0
-5157 5152 5151 0
-5157 5152 792 0
-5153 5158 0
-5152 -792 5158 0
-5158 5153 5152 0
-5158 5153 792 0
-5154 5159 0
-793 5159 0
-5159 5154 793 0
-5155 5160 0
-5154 -793 5160 0
-5160 5155 5154 0
-5160 5155 793 0
-5156 5161 0
-5155 -793 5161 0
-5161 5156 5155 0
-5161 5156 793 0
-5157 5162 0
-5156 -793 5162 0
-5162 5157 5156 0
-5162 5157 793 0
-5158 5163 0
-5157 -793 5163 0
-5163 5158 5157 0
-5163 5158 793 0
-5159 5164 0
-794 5164 0
-5164 5159 794 0
-5160 5165 0
-5159 -794 5165 0
-5165 5160 5159 0
-5165 5160 794 0
-5161 5166 0
-5160 -794 5166 0
-5166 5161 5160 0
-5166 5161 794 0
-5162 5167 0
-5161 -794 5167 0
-5167 5162 5161 0
-5167 5162 794 0
-5163 5168 0
-5162 -794 5168 0
-5168 5163 5162 0
-5168 5163 794 0
-5164 5169 0
-795 5169 0
-5169 5164 795 0
-5165 5170 0
-5164 -795 5170 0
-5170 5165 5164 0
-5170 5165 795 0
-5166 5171 0
-5165 -795 5171 0
-5171 5166 5165 0
-5171 5166 795 0
-5167 5172 0
-5166 -795 5172 0
-5172 5167 5166 0
-5172 5167 795 0
-5168 5173 0
-5167 -795 5173 0
-5173 5168 5167 0
-5173 5168 795 0
-5169 5174 0
-796 5174 0
-5174 5169 796 0
-5170 5175 0
-5169 -796 5175 0
-5175 5170 5169 0
-5175 5170 796 0
-5171 5176 0
-5170 -796 5176 0
-5176 5171 5170 0
-5176 5171 796 0
-5172 5177 0
-5171 -796 5177 0
-5177 5172 5171 0
-5177 5172 796 0
-5173 5178 0
-5172 -796 5178 0
-5178 5173 5172 0
-5178 5173 796 0
-5174 5179 0
-797 5179 0
-5179 5174 797 0
-5175 5180 0
-5174 -797 5180 0
-5180 5175 5174 0
-5180 5175 797 0
-5176 5181 0
-5175 -797 5181 0
-5181 5176 5175 0
-5181 5176 797 0
-5177 5182 0
-5176 -797 5182 0
-5182 5177 5176 0
-5182 5177 797 0
-5178 5183 0
-5177 -797 5183 0
-5183 5178 5177 0
-5183 5178 797 0
-5179 5184 0
-798 5184 0
-5184 5179 798 0
-5180 5185 0
-5179 -798 5185 0
-5185 5180 5179 0
-5185 5180 798 0
-5181 5186 0
-5180 -798 5186 0
-5186 5181 5180 0
-5186 5181 798 0
-5182 5187 0
-5181 -798 5187 0
-5187 5182 5181 0
-5187 5182 798 0
-5183 5188 0
-5182 -798 5188 0
-5188 5183 5182 0
-5188 5183 798 0
-5184 5189 0
-799 5189 0
-5189 5184 799 0
-5185 5190 0
-5184 -799 5190 0
-5190 5185 5184 0
-5190 5185 799 0
-5186 5191 0
-5185 -799 5191 0
-5191 5186 5185 0
-5191 5186 799 0
-5187 5192 0
-5186 -799 5192 0
-5192 5187 5186 0
-5192 5187 799 0
-5188 5193 0
-5187 -799 5193 0
-5193 5188 5187 0
-5193 5188 799 0
-5189 5194 0
-800 5194 0
-5194 5189 800 0
-5190 5195 0
-5189 -800 5195 0
-5195 5190 5189 0
-5195 5190 800 0
-5191 5196 0
-5190 -800 5196 0
-5196 5191 5190 0
-5196 5191 800 0
-5192 5197 0
-5191 -800 5197 0
-5197 5192 5191 0
-5197 5192 800 0
-5193 5198 0
-5192 -800 5198 0
-5198 5193 5192 0
-5198 5193 800 0
-5194 5199 0
-801 5199 0
-5199 5194 801 0
-5195 5200 0
-5194 -801 5200 0
-5200 5195 5194 0
-5200 5195 801 0
-5196 5201 0
-5195 -801 5201 0
-5201 5196 5195 0
-5201 5196 801 0
-5197 5202 0
-5196 -801 5202 0
-5202 5197 5196 0
-5202 5197 801 0
-5198 5203 0
-5197 -801 5203 0
-5203 5198 5197 0
-5203 5198 801 0
-5199 5204 0
-802 5204 0
-5204 5199 802 0
-5200 5205 0
-5199 -802 5205 0
-5205 5200 5199 0
-5205 5200 802 0
-5201 5206 0
-5200 -802 5206 0
-5206 5201 5200 0
-5206 5201 802 0
-5202 5207 0
-5201 -802 5207 0
-5207 5202 5201 0
-5207 5202 802 0
-5203 5208 0
-5202 -802 5208 0
-5208 5203 5202 0
-5208 5203 802 0
-5204 5209 0
-803 5209 0
-5209 5204 803 0
-5205 5210 0
-5204 -803 5210 0
-5210 5205 5204 0
-5210 5205 803 0
-5206 5211 0
-5205 -803 5211 0
-5211 5206 5205 0
-5211 5206 803 0
-5207 5212 0
-5206 -803 5212 0
-5212 5207 5206 0
-5212 5207 803 0
-5208 5213 0
-5207 -803 5213 0
-5213 5208 5207 0
-5213 5208 803 0
-5209 5214 0
-804 5214 0
-5214 5209 804 0
-5210 5215 0
-5209 -804 5215 0
-5215 5210 5209 0
-5215 5210 804 0
-5211 5216 0
-5210 -804 5216 0
-5216 5211 5210 0
-5216 5211 804 0
-5212 5217 0
-5211 -804 5217 0
-5217 5212 5211 0
-5217 5212 804 0
-5213 5218 0
-5212 -804 5218 0
-5218 5213 5212 0
-5218 5213 804 0
-5214 5219 0
-805 5219 0
-5219 5214 805 0
-5215 5220 0
-5214 -805 5220 0
-5220 5215 5214 0
-5220 5215 805 0
-5216 5221 0
-5215 -805 5221 0
-5221 5216 5215 0
-5221 5216 805 0
-5217 5222 0
-5216 -805 5222 0
-5222 5217 5216 0
-5222 5217 805 0
-5218 5223 0
-5217 -805 5223 0
-5223 5218 5217 0
-5223 5218 805 0
-5219 5224 0
-806 5224 0
-5224 5219 806 0
-5220 5225 0
-5219 -806 5225 0
-5225 5220 5219 0
-5225 5220 806 0
-5221 5226 0
-5220 -806 5226 0
-5226 5221 5220 0
-5226 5221 806 0
-5222 5227 0
-5221 -806 5227 0
-5227 5222 5221 0
-5227 5222 806 0
-5223 5228 0
-5222 -806 5228 0
-5228 5223 5222 0
-5228 5223 806 0
-5224 5229 0
-807 5229 0
-5229 5224 807 0
-5225 5230 0
-5224 -807 5230 0
-5230 5225 5224 0
-5230 5225 807 0
-5226 5231 0
-5225 -807 5231 0
-5231 5226 5225 0
-5231 5226 807 0
-5227 5232 0
-5226 -807 5232 0
-5232 5227 5226 0
-5232 5227 807 0
-5228 5233 0
-5227 -807 5233 0
-5233 5228 5227 0
-5233 5228 807 0
-5229 5234 0
-808 5234 0
-5234 5229 808 0
-5230 5235 0
-5229 -808 5235 0
-5235 5230 5229 0
-5235 5230 808 0
-5231 5236 0
-5230 -808 5236 0
-5236 5231 5230 0
-5236 5231 808 0
-5232 5237 0
-5231 -808 5237 0
-5237 5232 5231 0
-5237 5232 808 0
-5233 5238 0
-5232 -808 5238 0
-5238 5233 5232 0
-5238 5233 808 0
-5234 5239 0
-809 5239 0
-5239 5234 809 0
-5235 5240 0
-5234 -809 5240 0
-5240 5235 5234 0
-5240 5235 809 0
-5236 5241 0
-5235 -809 5241 0
-5241 5236 5235 0
-5241 5236 809 0
-5237 5242 0
-5236 -809 5242 0
-5242 5237 5236 0
-5242 5237 809 0
-5238 5243 0
-5237 -809 5243 0
-5243 5238 5237 0
-5243 5238 809 0
-5239 5244 0
-810 5244 0
-5244 5239 810 0
-5240 5245 0
-5239 -810 5245 0
-5245 5240 5239 0
-5245 5240 810 0
-5241 5246 0
-5240 -810 5246 0
-5246 5241 5240 0
-5246 5241 810 0
-5242 5247 0
-5241 -810 5247 0
-5247 5242 5241 0
-5247 5242 810 0
-5243 5248 0
-5242 -810 5248 0
-5248 5243 5242 0
-5248 5243 810 0
-5244 5249 0
-811 5249 0
-5249 5244 811 0
-5245 5250 0
-5244 -811 5250 0
-5250 5245 5244 0
-5250 5245 811 0
-5246 5251 0
-5245 -811 5251 0
-5251 5246 5245 0
-5251 5246 811 0
-5247 5252 0
-5246 -811 5252 0
-5252 5247 5246 0
-5252 5247 811 0
-5248 5253 0
-5247 -811 5253 0
-5253 5248 5247 0
-5253 5248 811 0
-5249 5254 0
-812 5254 0
-5254 5249 812 0
-5250 5255 0
-5249 -812 5255 0
-5255 5250 5249 0
-5255 5250 812 0
-5251 5256 0
-5250 -812 5256 0
-5256 5251 5250 0
-5256 5251 812 0
-5252 5257 0
-5251 -812 5257 0
-5257 5252 5251 0
-5257 5252 812 0
-5253 5258 0
-5252 -812 5258 0
-5258 5253 5252 0
-5258 5253 812 0
-5254 5259 0
-813 5259 0
-5259 5254 813 0
-5255 5260 0
-5254 -813 5260 0
-5260 5255 5254 0
-5260 5255 813 0
-5256 5261 0
-5255 -813 5261 0
-5261 5256 5255 0
-5261 5256 813 0
-5257 5262 0
-5256 -813 5262 0
-5262 5257 5256 0
-5262 5257 813 0
-5258 5263 0
-5257 -813 5263 0
-5263 5258 5257 0
-5263 5258 813 0
-5259 5264 0
-814 5264 0
-5264 5259 814 0
-5260 5265 0
-5259 -814 5265 0
-5265 5260 5259 0
-5265 5260 814 0
-5261 5266 0
-5260 -814 5266 0
-5266 5261 5260 0
-5266 5261 814 0
-5262 5267 0
-5261 -814 5267 0
-5267 5262 5261 0
-5267 5262 814 0
-5263 5268 0
-5262 -814 5268 0
-5268 5263 5262 0
-5268 5263 814 0
-5264 5269 0
-815 5269 0
-5269 5264 815 0
-5265 5270 0
-5264 -815 5270 0
-5270 5265 5264 0
-5270 5265 815 0
-5266 5271 0
-5265 -815 5271 0
-5271 5266 5265 0
-5271 5266 815 0
-5267 5272 0
-5266 -815 5272 0
-5272 5267 5266 0
-5272 5267 815 0
-5268 5273 0
-5267 -815 5273 0
-5273 5268 5267 0
-5273 5268 815 0
-5269 5274 0
-816 5274 0
-5274 5269 816 0
-5270 5275 0
-5269 -816 5275 0
-5275 5270 5269 0
-5275 5270 816 0
-5271 5276 0
-5270 -816 5276 0
-5276 5271 5270 0
-5276 5271 816 0
-5272 5277 0
-5271 -816 5277 0
-5277 5272 5271 0
-5277 5272 816 0
-5273 5278 0
-5272 -816 5278 0
-5278 5273 5272 0
-5278 5273 816 0
-5274 5279 0
-817 5279 0
-5279 5274 817 0
-5275 5280 0
-5274 -817 5280 0
-5280 5275 5274 0
-5280 5275 817 0
-5276 5281 0
-5275 -817 5281 0
-5281 5276 5275 0
-5281 5276 817 0
-5277 5282 0
-5276 -817 5282 0
-5282 5277 5276 0
-5282 5277 817 0
-5278 5283 0
-5277 -817 5283 0
-5283 5278 5277 0
-5283 5278 817 0
-5279 5284 0
-818 5284 0
-5284 5279 818 0
-5280 5285 0
-5279 -818 5285 0
-5285 5280 5279 0
-5285 5280 818 0
-5281 5286 0
-5280 -818 5286 0
-5286 5281 5280 0
-5286 5281 818 0
-5282 5287 0
-5281 -818 5287 0
-5287 5282 5281 0
-5287 5282 818 0
-5283 5288 0
-5282 -818 5288 0
-5288 5283 5282 0
-5288 5283 818 0
-5284 5289 0
-819 5289 0
-5289 5284 819 0
-5285 5290 0
-5284 -819 5290 0
-5290 5285 5284 0
-5290 5285 819 0
-5286 5291 0
-5285 -819 5291 0
-5291 5286 5285 0
-5291 5286 819 0
-5287 5292 0
-5286 -819 5292 0
-5292 5287 5286 0
-5292 5287 819 0
-5288 5293 0
-5287 -819 5293 0
-5293 5288 5287 0
-5293 5288 819 0
-5289 5294 0
-820 5294 0
-5294 5289 820 0
-5290 5295 0
-5289 -820 5295 0
-5295 5290 5289 0
-5295 5290 820 0
-5291 5296 0
-5290 -820 5296 0
-5296 5291 5290 0
-5296 5291 820 0
-5292 5297 0
-5291 -820 5297 0
-5297 5292 5291 0
-5297 5292 820 0
-5293 5298 0
-5292 -820 5298 0
-5298 5293 5292 0
-5298 5293 820 0
-5294 5299 0
-821 5299 0
-5299 5294 821 0
-5295 5300 0
-5294 -821 5300 0
-5300 5295 5294 0
-5300 5295 821 0
-5296 5301 0
-5295 -821 5301 0
-5301 5296 5295 0
-5301 5296 821 0
-5297 5302 0
-5296 -821 5302 0
-5302 5297 5296 0
-5302 5297 821 0
-5298 5303 0
-5297 -821 5303 0
-5303 5298 5297 0
-5303 5298 821 0
-5299 5304 0
-822 5304 0
-5304 5299 822 0
-5300 5305 0
-5299 -822 5305 0
-5305 5300 5299 0
-5305 5300 822 0
-5301 5306 0
-5300 -822 5306 0
-5306 5301 5300 0
-5306 5301 822 0
-5302 5307 0
-5301 -822 5307 0
-5307 5302 5301 0
-5307 5302 822 0
-5303 5308 0
-5302 -822 5308 0
-5308 5303 5302 0
-5308 5303 822 0
-5304 5309 0
-823 5309 0
-5309 5304 823 0
-5305 5310 0
-5304 -823 5310 0
-5310 5305 5304 0
-5310 5305 823 0
-5306 5311 0
-5305 -823 5311 0
-5311 5306 5305 0
-5311 5306 823 0
-5307 5312 0
-5306 -823 5312 0
-5312 5307 5306 0
-5312 5307 823 0
-5308 5313 0
-5307 -823 5313 0
-5313 5308 5307 0
-5313 5308 823 0
-5309 5314 0
-824 5314 0
-5314 5309 824 0
-5310 5315 0
-5309 -824 5315 0
-5315 5310 5309 0
-5315 5310 824 0
-5311 5316 0
-5310 -824 5316 0
-5316 5311 5310 0
-5316 5311 824 0
-5312 5317 0
-5311 -824 5317 0
-5317 5312 5311 0
-5317 5312 824 0
-5313 5318 0
-5312 -824 5318 0
-5318 5313 5312 0
-5318 5313 824 0
-5314 5319 0
-825 5319 0
-5319 5314 825 0
-5315 5320 0
-5314 -825 5320 0
-5320 5315 5314 0
-5320 5315 825 0
-5316 5321 0
-5315 -825 5321 0
-5321 5316 5315 0
-5321 5316 825 0
-5317 5322 0
-5316 -825 5322 0
-5322 5317 5316 0
-5322 5317 825 0
-5318 5323 0
-5317 -825 5323 0
-5323 5318 5317 0
-5323 5318 825 0
-5319 5324 0
-826 5324 0
-5324 5319 826 0
-5320 5325 0
-5319 -826 5325 0
-5325 5320 5319 0
-5325 5320 826 0
-5321 5326 0
-5320 -826 5326 0
-5326 5321 5320 0
-5326 5321 826 0
-5322 5327 0
-5321 -826 5327 0
-5327 5322 5321 0
-5327 5322 826 0
-5323 5328 0
-5322 -826 5328 0
-5328 5323 5322 0
-5328 5323 826 0
-5324 5329 0
-827 5329 0
-5329 5324 827 0
-5325 5330 0
-5324 -827 5330 0
-5330 5325 5324 0
-5330 5325 827 0
-5326 5331 0
-5325 -827 5331 0
-5331 5326 5325 0
-5331 5326 827 0
-5327 5332 0
-5326 -827 5332 0
-5332 5327 5326 0
-5332 5327 827 0
-5328 5333 0
-5327 -827 5333 0
-5333 5328 5327 0
-5333 5328 827 0
-5329 5334 0
-828 5334 0
-5334 5329 828 0
-5330 5335 0
-5329 -828 5335 0
-5335 5330 5329 0
-5335 5330 828 0
-5331 5336 0
-5330 -828 5336 0
-5336 5331 5330 0
-5336 5331 828 0
-5332 5337 0
-5331 -828 5337 0
-5337 5332 5331 0
-5337 5332 828 0
-5333 5338 0
-5332 -828 5338 0
-5338 5333 5332 0
-5338 5333 828 0
-5334 5339 0
-829 5339 0
-5339 5334 829 0
-5335 5340 0
-5334 -829 5340 0
-5340 5335 5334 0
-5340 5335 829 0
-5336 5341 0
-5335 -829 5341 0
-5341 5336 5335 0
-5341 5336 829 0
-5337 5342 0
-5336 -829 5342 0
-5342 5337 5336 0
-5342 5337 829 0
-5338 5343 0
-5337 -829 5343 0
-5343 5338 5337 0
-5343 5338 829 0
-5339 5344 0
-830 5344 0
-5344 5339 830 0
-5340 5345 0
-5339 -830 5345 0
-5345 5340 5339 0
-5345 5340 830 0
-5341 5346 0
-5340 -830 5346 0
-5346 5341 5340 0
-5346 5341 830 0
-5342 5347 0
-5341 -830 5347 0
-5347 5342 5341 0
-5347 5342 830 0
-5343 5348 0
-5342 -830 5348 0
-5348 5343 5342 0
-5348 5343 830 0
-5344 5349 0
-831 5349 0
-5349 5344 831 0
-5345 5350 0
-5344 -831 5350 0
-5350 5345 5344 0
-5350 5345 831 0
-5346 5351 0
-5345 -831 5351 0
-5351 5346 5345 0
-5351 5346 831 0
-5347 5352 0
-5346 -831 5352 0
-5352 5347 5346 0
-5352 5347 831 0
-5348 5353 0
-5347 -831 5353 0
-5353 5348 5347 0
-5353 5348 831 0
-5349 5354 0
-832 5354 0
-5354 5349 832 0
-5350 5355 0
-5349 -832 5355 0
-5355 5350 5349 0
-5355 5350 832 0
-5351 5356 0
-5350 -832 5356 0
-5356 5351 5350 0
-5356 5351 832 0
-5352 5357 0
-5351 -832 5357 0
-5357 5352 5351 0
-5357 5352 832 0
-5353 5358 0
-5352 -832 5358 0
-5358 5353 5352 0
-5358 5353 832 0
-5354 5359 0
-833 5359 0
-5359 5354 833 0
-5355 5360 0
-5354 -833 5360 0
-5360 5355 5354 0
-5360 5355 833 0
-5356 5361 0
-5355 -833 5361 0
-5361 5356 5355 0
-5361 5356 833 0
-5357 5362 0
-5356 -833 5362 0
-5362 5357 5356 0
-5362 5357 833 0
-5358 5363 0
-5357 -833 5363 0
-5363 5358 5357 0
-5363 5358 833 0
-5359 5364 0
-834 5364 0
-5364 5359 834 0
-5360 5365 0
-5359 -834 5365 0
-5365 5360 5359 0
-5365 5360 834 0
-5361 5366 0
-5360 -834 5366 0
-5366 5361 5360 0
-5366 5361 834 0
-5362 5367 0
-5361 -834 5367 0
-5367 5362 5361 0
-5367 5362 834 0
-5363 5368 0
-5362 -834 5368 0
-5368 5363 5362 0
-5368 5363 834 0
-5364 5369 0
-835 5369 0
-5369 5364 835 0
-5365 5370 0
-5364 -835 5370 0
-5370 5365 5364 0
-5370 5365 835 0
-5366 5371 0
-5365 -835 5371 0
-5371 5366 5365 0
-5371 5366 835 0
-5367 5372 0
-5366 -835 5372 0
-5372 5367 5366 0
-5372 5367 835 0
-5368 5373 0
-5367 -835 5373 0
-5373 5368 5367 0
-5373 5368 835 0
-5369 5374 0
-836 5374 0
-5374 5369 836 0
-5370 5375 0
-5369 -836 5375 0
-5375 5370 5369 0
-5375 5370 836 0
-5371 5376 0
-5370 -836 5376 0
-5376 5371 5370 0
-5376 5371 836 0
-5372 5377 0
-5371 -836 5377 0
-5377 5372 5371 0
-5377 5372 836 0
-5373 5378 0
-5372 -836 5378 0
-5378 5373 5372 0
-5378 5373 836 0
-5374 5379 0
-837 5379 0
-5379 5374 837 0
-5375 5380 0
-5374 -837 5380 0
-5380 5375 5374 0
-5380 5375 837 0
-5376 5381 0
-5375 -837 5381 0
-5381 5376 5375 0
-5381 5376 837 0
-5377 5382 0
-5376 -837 5382 0
-5382 5377 5376 0
-5382 5377 837 0
-5378 5383 0
-5377 -837 5383 0
-5383 5378 5377 0
-5383 5378 837 0
-5379 5384 0
-838 5384 0
-5384 5379 838 0
-5380 5385 0
-5379 -838 5385 0
-5385 5380 5379 0
-5385 5380 838 0
-5381 5386 0
-5380 -838 5386 0
-5386 5381 5380 0
-5386 5381 838 0
-5382 5387 0
-5381 -838 5387 0
-5387 5382 5381 0
-5387 5382 838 0
-5383 5388 0
-5382 -838 5388 0
-5388 5383 5382 0
-5388 5383 838 0
-5384 5389 0
-839 5389 0
-5389 5384 839 0
-5385 5390 0
-5384 -839 5390 0
-5390 5385 5384 0
-5390 5385 839 0
-5386 5391 0
-5385 -839 5391 0
-5391 5386 5385 0
-5391 5386 839 0
-5387 5392 0
-5386 -839 5392 0
-5392 5387 5386 0
-5392 5387 839 0
-5388 5393 0
-5387 -839 5393 0
-5393 5388 5387 0
-5393 5388 839 0
-5389 5394 0
-840 5394 0
-5394 5389 840 0
-5390 5395 0
-5389 -840 5395 0
-5395 5390 5389 0
-5395 5390 840 0
-5391 5396 0
-5390 -840 5396 0
-5396 5391 5390 0
-5396 5391 840 0
-5392 5397 0
-5391 -840 5397 0
-5397 5392 5391 0
-5397 5392 840 0
-5393 5398 0
-5392 -840 5398 0
-5398 5393 5392 0
-5398 5393 840 0
-5394 5399 0
-841 5399 0
-5399 5394 841 0
-5395 5400 0
-5394 -841 5400 0
-5400 5395 5394 0
-5400 5395 841 0
-5396 5401 0
-5395 -841 5401 0
-5401 5396 5395 0
-5401 5396 841 0
-5397 5402 0
-5396 -841 5402 0
-5402 5397 5396 0
-5402 5397 841 0
-5398 5403 0
-5397 -841 5403 0
-5403 5398 5397 0
-5403 5398 841 0
-5399 5404 0
-842 5404 0
-5404 5399 842 0
-5400 5405 0
-5399 -842 5405 0
-5405 5400 5399 0
-5405 5400 842 0
-5401 5406 0
-5400 -842 5406 0
-5406 5401 5400 0
-5406 5401 842 0
-5402 5407 0
-5401 -842 5407 0
-5407 5402 5401 0
-5407 5402 842 0
-5403 5408 0
-5402 -842 5408 0
-5408 5403 5402 0
-5408 5403 842 0
-5404 5409 0
-843 5409 0
-5409 5404 843 0
-5405 5410 0
-5404 -843 5410 0
-5410 5405 5404 0
-5410 5405 843 0
-5406 5411 0
-5405 -843 5411 0
-5411 5406 5405 0
-5411 5406 843 0
-5407 5412 0
-5406 -843 5412 0
-5412 5407 5406 0
-5412 5407 843 0
-5408 5413 0
-5407 -843 5413 0
-5413 5408 5407 0
-5413 5408 843 0
-5409 5414 0
-844 5414 0
-5414 5409 844 0
-5410 5415 0
-5409 -844 5415 0
-5415 5410 5409 0
-5415 5410 844 0
-5411 5416 0
-5410 -844 5416 0
-5416 5411 5410 0
-5416 5411 844 0
-5412 5417 0
-5411 -844 5417 0
-5417 5412 5411 0
-5417 5412 844 0
-5413 5418 0
-5412 -844 5418 0
-5418 5413 5412 0
-5418 5413 844 0
-5414 5419 0
-845 5419 0
-5419 5414 845 0
-5415 5420 0
-5414 -845 5420 0
-5420 5415 5414 0
-5420 5415 845 0
-5416 5421 0
-5415 -845 5421 0
-5421 5416 5415 0
-5421 5416 845 0
-5417 5422 0
-5416 -845 5422 0
-5422 5417 5416 0
-5422 5417 845 0
-5418 5423 0
-5417 -845 5423 0
-5423 5418 5417 0
-5423 5418 845 0
-5419 5424 0
-846 5424 0
-5424 5419 846 0
-5420 5425 0
-5419 -846 5425 0
-5425 5420 5419 0
-5425 5420 846 0
-5421 5426 0
-5420 -846 5426 0
-5426 5421 5420 0
-5426 5421 846 0
-5422 5427 0
-5421 -846 5427 0
-5427 5422 5421 0
-5427 5422 846 0
-5423 5428 0
-5422 -846 5428 0
-5428 5423 5422 0
-5428 5423 846 0
-5424 5429 0
-847 5429 0
-5429 5424 847 0
-5425 5430 0
-5424 -847 5430 0
-5430 5425 5424 0
-5430 5425 847 0
-5426 5431 0
-5425 -847 5431 0
-5431 5426 5425 0
-5431 5426 847 0
-5427 5432 0
-5426 -847 5432 0
-5432 5427 5426 0
-5432 5427 847 0
-5428 5433 0
-5427 -847 5433 0
-5433 5428 5427 0
-5433 5428 847 0
-5429 5434 0
-848 5434 0
-5434 5429 848 0
-5430 5435 0
-5429 -848 5435 0
-5435 5430 5429 0
-5435 5430 848 0
-5431 5436 0
-5430 -848 5436 0
-5436 5431 5430 0
-5436 5431 848 0
-5432 5437 0
-5431 -848 5437 0
-5437 5432 5431 0
-5437 5432 848 0
-5433 5438 0
-5432 -848 5438 0
-5438 5433 5432 0
-5438 5433 848 0
-5434 5439 0
-849 5439 0
-5439 5434 849 0
-5435 5440 0
-5434 -849 5440 0
-5440 5435 5434 0
-5440 5435 849 0
-5436 5441 0
-5435 -849 5441 0
-5441 5436 5435 0
-5441 5436 849 0
-5437 5442 0
-5436 -849 5442 0
-5442 5437 5436 0
-5442 5437 849 0
-5438 5443 0
-5437 -849 5443 0
-5443 5438 5437 0
-5443 5438 849 0
-5439 5444 0
-850 5444 0
-5444 5439 850 0
-5440 5445 0
-5439 -850 5445 0
-5445 5440 5439 0
-5445 5440 850 0
-5441 5446 0
-5440 -850 5446 0
-5446 5441 5440 0
-5446 5441 850 0
-5442 5447 0
-5441 -850 5447 0
-5447 5442 5441 0
-5447 5442 850 0
-5443 5448 0
-5442 -850 5448 0
-5448 5443 5442 0
-5448 5443 850 0
-5444 5449 0
-851 5449 0
-5449 5444 851 0
-5445 5450 0
-5444 -851 5450 0
-5450 5445 5444 0
-5450 5445 851 0
-5446 5451 0
-5445 -851 5451 0
-5451 5446 5445 0
-5451 5446 851 0
-5447 5452 0
-5446 -851 5452 0
-5452 5447 5446 0
-5452 5447 851 0
-5448 5453 0
-5447 -851 5453 0
-5453 5448 5447 0
-5453 5448 851 0
-5449 5454 0
-852 5454 0
-5454 5449 852 0
-5450 5455 0
-5449 -852 5455 0
-5455 5450 5449 0
-5455 5450 852 0
-5451 5456 0
-5450 -852 5456 0
-5456 5451 5450 0
-5456 5451 852 0
-5452 5457 0
-5451 -852 5457 0
-5457 5452 5451 0
-5457 5452 852 0
-5453 5458 0
-5452 -852 5458 0
-5458 5453 5452 0
-5458 5453 852 0
-5454 5459 0
-853 5459 0
-5459 5454 853 0
-5455 5460 0
-5454 -853 5460 0
-5460 5455 5454 0
-5460 5455 853 0
-5456 5461 0
-5455 -853 5461 0
-5461 5456 5455 0
-5461 5456 853 0
-5457 5462 0
-5456 -853 5462 0
-5462 5457 5456 0
-5462 5457 853 0
-5458 5463 0
-5457 -853 5463 0
-5463 5458 5457 0
-5463 5458 853 0
-5459 5464 0
-854 5464 0
-5464 5459 854 0
-5460 5465 0
-5459 -854 5465 0
-5465 5460 5459 0
-5465 5460 854 0
-5461 5466 0
-5460 -854 5466 0
-5466 5461 5460 0
-5466 5461 854 0
-5462 5467 0
-5461 -854 5467 0
-5467 5462 5461 0
-5467 5462 854 0
-5463 5468 0
-5462 -854 5468 0
-5468 5463 5462 0
-5468 5463 854 0
-5464 5469 0
-855 5469 0
-5469 5464 855 0
-5465 5470 0
-5464 -855 5470 0
-5470 5465 5464 0
-5470 5465 855 0
-5466 5471 0
-5465 -855 5471 0
-5471 5466 5465 0
-5471 5466 855 0
-5467 5472 0
-5466 -855 5472 0
-5472 5467 5466 0
-5472 5467 855 0
-5468 5473 0
-5467 -855 5473 0
-5473 5468 5467 0
-5473 5468 855 0
-5469 5474 0
-856 5474 0
-5474 5469 856 0
-5470 5475 0
-5469 -856 5475 0
-5475 5470 5469 0
-5475 5470 856 0
-5471 5476 0
-5470 -856 5476 0
-5476 5471 5470 0
-5476 5471 856 0
-5472 5477 0
-5471 -856 5477 0
-5477 5472 5471 0
-5477 5472 856 0
-5473 5478 0
-5472 -856 5478 0
-5478 5473 5472 0
-5478 5473 856 0
-5474 5479 0
-857 5479 0
-5479 5474 857 0
-5475 5480 0
-5474 -857 5480 0
-5480 5475 5474 0
-5480 5475 857 0
-5476 5481 0
-5475 -857 5481 0
-5481 5476 5475 0
-5481 5476 857 0
-5477 5482 0
-5476 -857 5482 0
-5482 5477 5476 0
-5482 5477 857 0
-5478 5483 0
-5477 -857 5483 0
-5483 5478 5477 0
-5483 5478 857 0
-5479 5484 0
-858 5484 0
-5484 5479 858 0
-5480 5485 0
-5479 -858 5485 0
-5485 5480 5479 0
-5485 5480 858 0
-5481 5486 0
-5480 -858 5486 0
-5486 5481 5480 0
-5486 5481 858 0
-5482 5487 0
-5481 -858 5487 0
-5487 5482 5481 0
-5487 5482 858 0
-5483 5488 0
-5482 -858 5488 0
-5488 5483 5482 0
-5488 5483 858 0
-5484 5489 0
-859 5489 0
-5489 5484 859 0
-5485 5490 0
-5484 -859 5490 0
-5490 5485 5484 0
-5490 5485 859 0
-5486 5491 0
-5485 -859 5491 0
-5491 5486 5485 0
-5491 5486 859 0
-5487 5492 0
-5486 -859 5492 0
-5492 5487 5486 0
-5492 5487 859 0
-5488 5493 0
-5487 -859 5493 0
-5493 5488 5487 0
-5493 5488 859 0
-5489 5494 0
-860 5494 0
-5494 5489 860 0
-5490 5495 0
-5489 -860 5495 0
-5495 5490 5489 0
-5495 5490 860 0
-5491 5496 0
-5490 -860 5496 0
-5496 5491 5490 0
-5496 5491 860 0
-5492 5497 0
-5491 -860 5497 0
-5497 5492 5491 0
-5497 5492 860 0
-5493 5498 0
-5492 -860 5498 0
-5498 5493 5492 0
-5498 5493 860 0
-5494 5499 0
-861 5499 0
-5499 5494 861 0
-5495 5500 0
-5494 -861 5500 0
-5500 5495 5494 0
-5500 5495 861 0
-5496 5501 0
-5495 -861 5501 0
-5501 5496 5495 0
-5501 5496 861 0
-5497 5502 0
-5496 -861 5502 0
-5502 5497 5496 0
-5502 5497 861 0
-5498 5503 0
-5497 -861 5503 0
-5503 5498 5497 0
-5503 5498 861 0
-5499 5504 0
-862 5504 0
-5504 5499 862 0
-5500 5505 0
-5499 -862 5505 0
-5505 5500 5499 0
-5505 5500 862 0
-5501 5506 0
-5500 -862 5506 0
-5506 5501 5500 0
-5506 5501 862 0
-5502 5507 0
-5501 -862 5507 0
-5507 5502 5501 0
-5507 5502 862 0
-5503 5508 0
-5502 -862 5508 0
-5508 5503 5502 0
-5508 5503 862 0
-5504 5509 0
-863 5509 0
-5509 5504 863 0
-5505 5510 0
-5504 -863 5510 0
-5510 5505 5504 0
-5510 5505 863 0
-5506 5511 0
-5505 -863 5511 0
-5511 5506 5505 0
-5511 5506 863 0
-5507 5512 0
-5506 -863 5512 0
-5512 5507 5506 0
-5512 5507 863 0
-5508 5513 0
-5507 -863 5513 0
-5513 5508 5507 0
-5513 5508 863 0
-5509 5514 0
-864 5514 0
-5514 5509 864 0
-5510 5515 0
-5509 -864 5515 0
-5515 5510 5509 0
-5515 5510 864 0
-5511 5516 0
-5510 -864 5516 0
-5516 5511 5510 0
-5516 5511 864 0
-5512 5517 0
-5511 -864 5517 0
-5517 5512 5511 0
-5517 5512 864 0
-5513 5518 0
-5512 -864 5518 0
-5518 5513 5512 0
-5518 5513 864 0
-5514 5519 0
-865 5519 0
-5519 5514 865 0
-5515 5520 0
-5514 -865 5520 0
-5520 5515 5514 0
-5520 5515 865 0
-5516 5521 0
-5515 -865 5521 0
-5521 5516 5515 0
-5521 5516 865 0
-5517 5522 0
-5516 -865 5522 0
-5522 5517 5516 0
-5522 5517 865 0
-5518 5523 0
-5517 -865 5523 0
-5523 5518 5517 0
-5523 5518 865 0
-5519 5524 0
-866 5524 0
-5524 5519 866 0
-5520 5525 0
-5519 -866 5525 0
-5525 5520 5519 0
-5525 5520 866 0
-5521 5526 0
-5520 -866 5526 0
-5526 5521 5520 0
-5526 5521 866 0
-5522 5527 0
-5521 -866 5527 0
-5527 5522 5521 0
-5527 5522 866 0
-5523 5528 0
-5522 -866 5528 0
-5528 5523 5522 0
-5528 5523 866 0
-5524 5529 0
-867 5529 0
-5529 5524 867 0
-5525 5530 0
-5524 -867 5530 0
-5530 5525 5524 0
-5530 5525 867 0
-5526 5531 0
-5525 -867 5531 0
-5531 5526 5525 0
-5531 5526 867 0
-5527 5532 0
-5526 -867 5532 0
-5532 5527 5526 0
-5532 5527 867 0
-5528 5533 0
-5527 -867 5533 0
-5533 5528 5527 0
-5533 5528 867 0
-5529 5534 0
-868 5534 0
-5534 5529 868 0
-5530 5535 0
-5529 -868 5535 0
-5535 5530 5529 0
-5535 5530 868 0
-5531 5536 0
-5530 -868 5536 0
-5536 5531 5530 0
-5536 5531 868 0
-5532 5537 0
-5531 -868 5537 0
-5537 5532 5531 0
-5537 5532 868 0
-5533 5538 0
-5532 -868 5538 0
-5538 5533 5532 0
-5538 5533 868 0
-5534 5539 0
-869 5539 0
-5539 5534 869 0
-5535 5540 0
-5534 -869 5540 0
-5540 5535 5534 0
-5540 5535 869 0
-5536 5541 0
-5535 -869 5541 0
-5541 5536 5535 0
-5541 5536 869 0
-5537 5542 0
-5536 -869 5542 0
-5542 5537 5536 0
-5542 5537 869 0
-5538 5543 0
-5537 -869 5543 0
-5543 5538 5537 0
-5543 5538 869 0
-5539 5544 0
-870 5544 0
-5544 5539 870 0
-5540 5545 0
-5539 -870 5545 0
-5545 5540 5539 0
-5545 5540 870 0
-5541 5546 0
-5540 -870 5546 0
-5546 5541 5540 0
-5546 5541 870 0
-5542 5547 0
-5541 -870 5547 0
-5547 5542 5541 0
-5547 5542 870 0
-5543 5548 0
-5542 -870 5548 0
-5548 5543 5542 0
-5548 5543 870 0
-5544 5549 0
-871 5549 0
-5549 5544 871 0
-5545 5550 0
-5544 -871 5550 0
-5550 5545 5544 0
-5550 5545 871 0
-5546 5551 0
-5545 -871 5551 0
-5551 5546 5545 0
-5551 5546 871 0
-5547 5552 0
-5546 -871 5552 0
-5552 5547 5546 0
-5552 5547 871 0
-5548 5553 0
-5547 -871 5553 0
-5553 5548 5547 0
-5553 5548 871 0
-5549 5554 0
-872 5554 0
-5554 5549 872 0
-5550 5555 0
-5549 -872 5555 0
-5555 5550 5549 0
-5555 5550 872 0
-5551 5556 0
-5550 -872 5556 0
-5556 5551 5550 0
-5556 5551 872 0
-5552 5557 0
-5551 -872 5557 0
-5557 5552 5551 0
-5557 5552 872 0
-5553 5558 0
-5552 -872 5558 0
-5558 5553 5552 0
-5558 5553 872 0
-5554 5559 0
-873 5559 0
-5559 5554 873 0
-5555 5560 0
-5554 -873 5560 0
-5560 5555 5554 0
-5560 5555 873 0
-5556 5561 0
-5555 -873 5561 0
-5561 5556 5555 0
-5561 5556 873 0
-5557 5562 0
-5556 -873 5562 0
-5562 5557 5556 0
-5562 5557 873 0
-5558 5563 0
-5557 -873 5563 0
-5563 5558 5557 0
-5563 5558 873 0
-5559 5564 0
-874 5564 0
-5564 5559 874 0
-5560 5565 0
-5559 -874 5565 0
-5565 5560 5559 0
-5565 5560 874 0
-5561 5566 0
-5560 -874 5566 0
-5566 5561 5560 0
-5566 5561 874 0
-5562 5567 0
-5561 -874 5567 0
-5567 5562 5561 0
-5567 5562 874 0
-5563 5568 0
-5562 -874 5568 0
-5568 5563 5562 0
-5568 5563 874 0
-5564 5569 0
-875 5569 0
-5569 5564 875 0
-5565 5570 0
-5564 -875 5570 0
-5570 5565 5564 0
-5570 5565 875 0
-5566 5571 0
-5565 -875 5571 0
-5571 5566 5565 0
-5571 5566 875 0
-5567 5572 0
-5566 -875 5572 0
-5572 5567 5566 0
-5572 5567 875 0
-5568 5573 0
-5567 -875 5573 0
-5573 5568 5567 0
-5573 5568 875 0
-5569 5574 0
-876 5574 0
-5574 5569 876 0
-5570 5575 0
-5569 -876 5575 0
-5575 5570 5569 0
-5575 5570 876 0
-5571 5576 0
-5570 -876 5576 0
-5576 5571 5570 0
-5576 5571 876 0
-5572 5577 0
-5571 -876 5577 0
-5577 5572 5571 0
-5577 5572 876 0
-5573 5578 0
-5572 -876 5578 0
-5578 5573 5572 0
-5578 5573 876 0
-5574 5579 0
-877 5579 0
-5579 5574 877 0
-5575 5580 0
-5574 -877 5580 0
-5580 5575 5574 0
-5580 5575 877 0
-5576 5581 0
-5575 -877 5581 0
-5581 5576 5575 0
-5581 5576 877 0
-5577 5582 0
-5576 -877 5582 0
-5582 5577 5576 0
-5582 5577 877 0
-5578 5583 0
-5577 -877 5583 0
-5583 5578 5577 0
-5583 5578 877 0
-5579 5584 0
-878 5584 0
-5584 5579 878 0
-5580 5585 0
-5579 -878 5585 0
-5585 5580 5579 0
-5585 5580 878 0
-5581 5586 0
-5580 -878 5586 0
-5586 5581 5580 0
-5586 5581 878 0
-5582 5587 0
-5581 -878 5587 0
-5587 5582 5581 0
-5587 5582 878 0
-5583 5588 0
-5582 -878 5588 0
-5588 5583 5582 0
-5588 5583 878 0
-5584 5589 0
-879 5589 0
-5589 5584 879 0
-5585 5590 0
-5584 -879 5590 0
-5590 5585 5584 0
-5590 5585 879 0
-5586 5591 0
-5585 -879 5591 0
-5591 5586 5585 0
-5591 5586 879 0
-5587 5592 0
-5586 -879 5592 0
-5592 5587 5586 0
-5592 5587 879 0
-5588 5593 0
-5587 -879 5593 0
-5593 5588 5587 0
-5593 5588 879 0
-5589 5594 0
-880 5594 0
-5594 5589 880 0
-5590 5595 0
-5589 -880 5595 0
-5595 5590 5589 0
-5595 5590 880 0
-5591 5596 0
-5590 -880 5596 0
-5596 5591 5590 0
-5596 5591 880 0
-5592 5597 0
-5591 -880 5597 0
-5597 5592 5591 0
-5597 5592 880 0
-5593 5598 0
-5592 -880 5598 0
-5598 5593 5592 0
-5598 5593 880 0
-5594 5599 0
-881 5599 0
-5599 5594 881 0
-5595 5600 0
-5594 -881 5600 0
-5600 5595 5594 0
-5600 5595 881 0
-5596 5601 0
-5595 -881 5601 0
-5601 5596 5595 0
-5601 5596 881 0
-5597 5602 0
-5596 -881 5602 0
-5602 5597 5596 0
-5602 5597 881 0
-5598 5603 0
-5597 -881 5603 0
-5603 5598 5597 0
-5603 5598 881 0
-5599 5604 0
-882 5604 0
-5604 5599 882 0
-5600 5605 0
-5599 -882 5605 0
-5605 5600 5599 0
-5605 5600 882 0
-5601 5606 0
-5600 -882 5606 0
-5606 5601 5600 0
-5606 5601 882 0
-5602 5607 0
-5601 -882 5607 0
-5607 5602 5601 0
-5607 5602 882 0
-5603 5608 0
-5602 -882 5608 0
-5608 5603 5602 0
-5608 5603 882 0
-5604 5609 0
-883 5609 0
-5609 5604 883 0
-5605 5610 0
-5604 -883 5610 0
-5610 5605 5604 0
-5610 5605 883 0
-5606 5611 0
-5605 -883 5611 0
-5611 5606 5605 0
-5611 5606 883 0
-5607 5612 0
-5606 -883 5612 0
-5612 5607 5606 0
-5612 5607 883 0
-5608 5613 0
-5607 -883 5613 0
-5613 5608 5607 0
-5613 5608 883 0
-5609 5614 0
-884 5614 0
-5614 5609 884 0
-5610 5615 0
-5609 -884 5615 0
-5615 5610 5609 0
-5615 5610 884 0
-5611 5616 0
-5610 -884 5616 0
-5616 5611 5610 0
-5616 5611 884 0
-5612 5617 0
-5611 -884 5617 0
-5617 5612 5611 0
-5617 5612 884 0
-5613 5618 0
-5612 -884 5618 0
-5618 5613 5612 0
-5618 5613 884 0
-5614 5619 0
-885 5619 0
-5619 5614 885 0
-5615 5620 0
-5614 -885 5620 0
-5620 5615 5614 0
-5620 5615 885 0
-5616 5621 0
-5615 -885 5621 0
-5621 5616 5615 0
-5621 5616 885 0
-5617 5622 0
-5616 -885 5622 0
-5622 5617 5616 0
-5622 5617 885 0
-5618 5623 0
-5617 -885 5623 0
-5623 5618 5617 0
-5623 5618 885 0
-5619 5624 0
-886 5624 0
-5624 5619 886 0
-5620 5625 0
-5619 -886 5625 0
-5625 5620 5619 0
-5625 5620 886 0
-5621 5626 0
-5620 -886 5626 0
-5626 5621 5620 0
-5626 5621 886 0
-5622 5627 0
-5621 -886 5627 0
-5627 5622 5621 0
-5627 5622 886 0
-5623 5628 0
-5622 -886 5628 0
-5628 5623 5622 0
-5628 5623 886 0
-5624 5629 0
-887 5629 0
-5629 5624 887 0
-5625 5630 0
-5624 -887 5630 0
-5630 5625 5624 0
-5630 5625 887 0
-5626 5631 0
-5625 -887 5631 0
-5631 5626 5625 0
-5631 5626 887 0
-5627 5632 0
-5626 -887 5632 0
-5632 5627 5626 0
-5632 5627 887 0
-5628 5633 0
-5627 -887 5633 0
-5633 5628 5627 0
-5633 5628 887 0
-5629 5634 0
-888 5634 0
-5634 5629 888 0
-5630 5635 0
-5629 -888 5635 0
-5635 5630 5629 0
-5635 5630 888 0
-5631 5636 0
-5630 -888 5636 0
-5636 5631 5630 0
-5636 5631 888 0
-5632 5637 0
-5631 -888 5637 0
-5637 5632 5631 0
-5637 5632 888 0
-5633 5638 0
-5632 -888 5638 0
-5638 5633 5632 0
-5638 5633 888 0
-5634 5639 0
-889 5639 0
-5639 5634 889 0
-5635 5640 0
-5634 -889 5640 0
-5640 5635 5634 0
-5640 5635 889 0
-5636 5641 0
-5635 -889 5641 0
-5641 5636 5635 0
-5641 5636 889 0
-5637 5642 0
-5636 -889 5642 0
-5642 5637 5636 0
-5642 5637 889 0
-5638 5643 0
-5637 -889 5643 0
-5643 5638 5637 0
-5643 5638 889 0
-5639 5644 0
-890 5644 0
-5644 5639 890 0
-5640 5645 0
-5639 -890 5645 0
-5645 5640 5639 0
-5645 5640 890 0
-5641 5646 0
-5640 -890 5646 0
-5646 5641 5640 0
-5646 5641 890 0
-5642 5647 0
-5641 -890 5647 0
-5647 5642 5641 0
-5647 5642 890 0
-5643 5648 0
-5642 -890 5648 0
-5648 5643 5642 0
-5648 5643 890 0
-5644 5649 0
-891 5649 0
-5649 5644 891 0
-5645 5650 0
-5644 -891 5650 0
-5650 5645 5644 0
-5650 5645 891 0
-5646 5651 0
-5645 -891 5651 0
-5651 5646 5645 0
-5651 5646 891 0
-5647 5652 0
-5646 -891 5652 0
-5652 5647 5646 0
-5652 5647 891 0
-5648 5653 0
-5647 -891 5653 0
-5653 5648 5647 0
-5653 5648 891 0
-5649 5654 0
-892 5654 0
-5654 5649 892 0
-5650 5655 0
-5649 -892 5655 0
-5655 5650 5649 0
-5655 5650 892 0
-5651 5656 0
-5650 -892 5656 0
-5656 5651 5650 0
-5656 5651 892 0
-5652 5657 0
-5651 -892 5657 0
-5657 5652 5651 0
-5657 5652 892 0
-5653 5658 0
-5652 -892 5658 0
-5658 5653 5652 0
-5658 5653 892 0
-5654 5659 0
-893 5659 0
-5659 5654 893 0
-5655 5660 0
-5654 -893 5660 0
-5660 5655 5654 0
-5660 5655 893 0
-5656 5661 0
-5655 -893 5661 0
-5661 5656 5655 0
-5661 5656 893 0
-5657 5662 0
-5656 -893 5662 0
-5662 5657 5656 0
-5662 5657 893 0
-5658 5663 0
-5657 -893 5663 0
-5663 5658 5657 0
-5663 5658 893 0
-5659 5664 0
-894 5664 0
-5664 5659 894 0
-5660 5665 0
-5659 -894 5665 0
-5665 5660 5659 0
-5665 5660 894 0
-5661 5666 0
-5660 -894 5666 0
-5666 5661 5660 0
-5666 5661 894 0
-5662 5667 0
-5661 -894 5667 0
-5667 5662 5661 0
-5667 5662 894 0
-5663 5668 0
-5662 -894 5668 0
-5668 5663 5662 0
-5668 5663 894 0
-5664 5669 0
-895 5669 0
-5669 5664 895 0
-5665 5670 0
-5664 -895 5670 0
-5670 5665 5664 0
-5670 5665 895 0
-5666 5671 0
-5665 -895 5671 0
-5671 5666 5665 0
-5671 5666 895 0
-5667 5672 0
-5666 -895 5672 0
-5672 5667 5666 0
-5672 5667 895 0
-5668 5673 0
-5667 -895 5673 0
-5673 5668 5667 0
-5673 5668 895 0
-5669 5674 0
-896 5674 0
-5674 5669 896 0
-5670 5675 0
-5669 -896 5675 0
-5675 5670 5669 0
-5675 5670 896 0
-5671 5676 0
-5670 -896 5676 0
-5676 5671 5670 0
-5676 5671 896 0
-5672 5677 0
-5671 -896 5677 0
-5677 5672 5671 0
-5677 5672 896 0
-5673 5678 0
-5672 -896 5678 0
-5678 5673 5672 0
-5678 5673 896 0
-5674 5679 0
-897 5679 0
-5679 5674 897 0
-5675 5680 0
-5674 -897 5680 0
-5680 5675 5674 0
-5680 5675 897 0
-5676 5681 0
-5675 -897 5681 0
-5681 5676 5675 0
-5681 5676 897 0
-5677 5682 0
-5676 -897 5682 0
-5682 5677 5676 0
-5682 5677 897 0
-5678 5683 0
-5677 -897 5683 0
-5683 5678 5677 0
-5683 5678 897 0
-5679 5684 0
-898 5684 0
-5684 5679 898 0
-5680 5685 0
-5679 -898 5685 0
-5685 5680 5679 0
-5685 5680 898 0
-5681 5686 0
-5680 -898 5686 0
-5686 5681 5680 0
-5686 5681 898 0
-5682 5687 0
-5681 -898 5687 0
-5687 5682 5681 0
-5687 5682 898 0
-5683 5688 0
-5682 -898 5688 0
-5688 5683 5682 0
-5688 5683 898 0
-5684 5689 0
-899 5689 0
-5689 5684 899 0
-5685 5690 0
-5684 -899 5690 0
-5690 5685 5684 0
-5690 5685 899 0
-5686 5691 0
-5685 -899 5691 0
-5691 5686 5685 0
-5691 5686 899 0
-5687 5692 0
-5686 -899 5692 0
-5692 5687 5686 0
-5692 5687 899 0
-5688 5693 0
-5687 -899 5693 0
-5693 5688 5687 0
-5693 5688 899 0
-5689 5694 0
-900 5694 0
-5694 5689 900 0
-5690 5695 0
-5689 -900 5695 0
-5695 5690 5689 0
-5695 5690 900 0
-5691 5696 0
-5690 -900 5696 0
-5696 5691 5690 0
-5696 5691 900 0
-5692 5697 0
-5691 -900 5697 0
-5697 5692 5691 0
-5697 5692 900 0
-5693 5698 0
-5692 -900 5698 0
-5698 5693 5692 0
-5698 5693 900 0
-5694 5699 0
-901 5699 0
-5699 5694 901 0
-5695 5700 0
-5694 -901 5700 0
-5700 5695 5694 0
-5700 5695 901 0
-5696 5701 0
-5695 -901 5701 0
-5701 5696 5695 0
-5701 5696 901 0
-5697 5702 0
-5696 -901 5702 0
-5702 5697 5696 0
-5702 5697 901 0
-5698 5703 0
-5697 -901 5703 0
-5703 5698 5697 0
-5703 5698 901 0
5703 0
